&CONTROL
   calculation      = 'relax'
   restart_mode     = 'from_scratch'
   nstep            = 400
   outdir           = 'WORK'
   max_seconds      = 86000
   disk_io          = 'none'
   pseudo_dir       = '/leonardo/home/userexternal/epedrett/pseudo'
/
&SYSTEM
   ibrav            = 0
   nat              = 364
   ntyp             = 5
   starting_magnetization(2) = 0.5
   ecutwfc          = 40
   ecutrho          = 320
   occupations      = 'smearing'
   degauss          = 0.01
   smearing         = 'mv'
   nspin            = 2
   vdw_corr         = 'grimme-d3'
/
&ELECTRONS
   electron_maxstep = 400
   conv_thr         = 1e-06
   mixing_mode      = 'local-TF'
   mixing_beta      = 0.1
   mixing_ndim      = 16
   diagonalization  = 'david'
   scf_must_converge = .false.
/
&IONS
   ion_dynamics     = 'bfgs'
/
&CELL
/
&FCP
/
&RISM
/
ATOMIC_SPECIES
C 12.011 C.pbe-n-rrkjus_psl.1.0.0.UPF
Co 58.933194 co_pbe_v1.2.uspp.F.UPF
N 14.007 N.pbe-n-rrkjus_psl.1.0.0.UPF
H 1.008 H.pbe-rrkjus_psl.1.0.0.UPF
O 15.999 O.pbe-n-rrkjus_psl.1.0.0.UPF

K_POINTS gamma

CELL_PARAMETERS angstrom
17.32558459959204 0.00000000000000 0.00000000000000
0.00000000000000 17.14787607835402 0.00000000000000
0.00000000000000 0.00000000000000 30.00000000000000

ATOMIC_POSITIONS angstrom
Co            8.6834198580        7.9189695294       11.1680898655
Co            8.6766392226        3.6222043477       10.9393619343
Co            0.0195600167        5.7722746696       10.9421179168
Co            0.0168154690        1.4864353895       10.9425364581
Co            0.0200792663       10.0665920150       10.9433009653
Co            4.9666478215        5.7733010024       10.9476651446
Co           12.3808936530        5.7526676790       10.9201103061
Co            0.0148876760       14.3494404070       10.9459521156
Co            8.6783045968       12.2047029653       10.9529840402
Co            8.6777559504       16.4913523948       10.9445620236
Co            3.7287191836        3.6299611469       10.9445822352
Co           13.6286431660        3.6223526308       10.9392605632
Co            7.4326025204        5.7580734814       10.9302381070
Co            9.9197595663        5.7522959963       10.9219352308
Co            3.7260564676        7.9182416173       10.9489102087
Co           13.6295158656        7.9164027396       11.0482151438
Co            4.9618834566       10.0651773794       10.9407499540
Co           12.3831797708       10.0830283238       10.9218579574
Co            4.9653688424        1.4871555476       10.9420949777
Co           12.3896754011        1.4852504073       10.9438613129
Co            1.2549037383        3.6296820515       10.9430241982
Co           16.1075599542        3.6233270770       10.9416625627
Co            7.4343266715       10.0740118295       10.9307760586
Co            9.9208459127       10.0803990328       10.9363203397
Co            1.2594696299        7.9185437946       10.9459393477
Co           16.1240943613        7.9195049476       10.9329621673
Co            3.7273551986       12.2074383751       10.9483614221
Co           13.6274122124       12.2105930807       10.9387063584
Co            3.7284364743       16.4918052879       10.9435465629
Co           13.6274078532       16.4929097900       10.9456127418
Co            7.4390451145        1.4843636765       10.9445078902
Co            9.9151202971        1.4839754804       10.9447168689
Co            4.9654060503       14.3494507936       10.9465637616
Co           12.3905157988       14.3506749233       10.9444645688
Co            1.2526771337       16.4919654061       10.9446481132
Co           16.1031818122       16.4923055332       10.9460102965
Co            1.2536062956       12.2071808417       10.9481591822
Co           16.1038160207       12.2117842538       10.9435631046
Co            6.1846185444        7.9167394042       10.9286196753
Co           11.1460908486        7.9194081499       10.9040913063
Co            6.2018161703        3.6258302398       10.9451810658
Co           11.1507089390        3.6209759247       10.9439782167
Co            7.4405668029       14.3500572565       10.9489640927
Co            9.9157421210       14.3499972342       10.9473871720
Co            2.4923293417        5.7737475000       10.9462318721
Co           14.8770671335        5.7542629446       10.9284263555
Co            2.4912271665        1.4863750503       10.9430765791
Co           14.8666789967        1.4850215879       10.9434368470
Co            2.4911727241       10.0621822836       10.9514509734
Co           14.8737318698       10.0785558990       10.9256458833
Co            6.2029537444       12.2085527373       10.9499346562
Co           11.1523416650       12.2133641183       10.9471358056
Co            2.4902769483       14.3504625201       10.9459370619
Co           14.8655362164       14.3511465741       10.9461623647
Co            6.2023282455       16.4915942120       10.9439626954
Co           11.1531670750       16.4907153803       10.9451058222
Co            8.6760306536        5.0581842354        8.9862542910
Co           17.3420975349        7.2046563197        8.9884050104
Co            8.6786628760        9.3250715780        9.0303486994
Co            0.0165413874        2.9184773173        8.9872142793
Co            4.9648903039        7.2022750446        8.9891671066
Co           12.4048368349        7.2102592824        9.0010137151
Co            3.7274712983        5.0618009122        8.9926074867
Co           13.6309014625        5.0594335182        8.9847929493
Co           17.3417933189       11.4960523185        8.9924890310
Co            8.6773317866        0.7750059864        8.9888390022
Co           17.3409887950       15.7815065327        8.9911872223
Co            3.7269596609        9.3504366232        8.9940834753
Co           13.6294944223        9.3338252954        9.0109329087
Co            4.9655236884        2.9195401164        8.9879464963
Co           12.3896048674        2.9179040020        8.9867714010
Co            8.6774737071       13.6395755573        8.9964064721
Co            4.9647918126       11.4963304662        8.9933208938
Co           12.3915160486       11.4989127987        8.9841701901
Co            3.7280635908        0.7758829309        8.9883043438
Co           13.6281381761        0.7758693730        8.9890826092
Co            3.7268778265       13.6389944129        8.9923322415
Co           13.6286698255       13.6417513994        8.9899521082
Co            4.9649703295       15.7803892232        8.9892066351
Co           12.3905053377       15.7827790165        8.9888624443
Co            7.4611999771        7.2175542890        9.0313172449
Co            9.8935720477        7.2131847752        9.0177538105
Co            1.2548838548        5.0617182933        8.9905589803
Co           16.1065549407        5.0619437327        8.9850483426
Co            7.4389469679        2.9160610811        8.9887371981
Co            9.9165094769        2.9168771471        8.9877545142
Co            1.2544104938        9.3514346039        8.9934736172
Co           16.1063887171        9.3520024364        8.9876086304
Co            1.2536402547        0.7760704316        8.9890544187
Co           16.1041576719        0.7759870041        8.9886925013
Co            7.4438422251       11.4952204328        8.9922933490
Co            9.9121906178       11.4969178366        8.9905099801
Co            1.2535708278       13.6393036887        8.9917401603
Co           16.1032130594       13.6395312630        8.9910917142
Co            7.4395555167       15.7802530711        8.9903796147
Co            9.9155664735       15.7812338673        8.9897929961
Co            6.2005622682        5.0625910135        8.9878502328
Co           11.1535977994        5.0601256662        8.9783749622
Co            2.4914622887        7.2061240938        8.9919894080
Co           14.8545552838        7.2136953967        9.0135462347
Co            6.2010684629        9.3524951040        8.9883455362
Co           11.1520121761        9.3565230026        8.9828071458
Co            2.4910563561        2.9186111418        8.9887803930
Co           14.8667995069        2.9170983579        8.9866676987
Co            2.4907752657       11.4947170540        8.9945492837
Co           14.8642098504       11.4964032704        8.9841061805
Co            6.2021836233        0.7747835578        8.9875526819
Co           11.1529339696        0.7748926559        8.9887853353
Co            2.4904122492       15.7824850756        8.9898009318
Co           14.8661483205       15.7827718846        8.9912827150
Co            6.2028575886       13.6371441984        8.9940185250
Co           11.1526280503       13.6381391063        8.9901337203
Co            6.2025006460       12.2242346501        6.9474188307
Co           11.1516742978       12.2241709154        6.9448526645
Co            2.4898832138       10.0821512526        6.9469686588
Co           14.8628172501       10.0809516157        6.9494553776
Co            2.4893215686        5.7948273739        6.9446636451
Co           14.8672760875        5.7978147207        6.9490304447
Co            6.2064532223        7.9346729469        6.9585334129
Co           11.1516214632        7.9330823687        6.9608309095
Co            6.2023074711       16.5115242450        6.9423525954
Co           11.1526623169       16.5117493337        6.9414237583
Co            2.4899810958       14.3686919566        6.9434916592
Co           14.8660707446       14.3692254892        6.9432675857
Co            2.4894317617        1.5072069540        6.9413365944
Co           14.8654195774        1.5066470294        6.9416792680
Co            6.2037529948        3.6520484079        6.9438747509
Co           11.1529151486        3.6515423991        6.9415842381
Co            7.4452240442       10.0803085212        6.9587122368
Co            9.9107844321       10.0807260005        6.9570617820
Co            7.4392386519       14.3685984563        6.9458408812
Co            9.9146990538       14.3690790988        6.9440247085
Co            1.2512305577        7.9394360003        6.9456012913
Co           16.1009527154        7.9366253908        6.9496500334
Co            1.2527786109       12.2256055076        6.9454090138
Co           16.1040554543       12.2257133837        6.9439358793
Co            1.2520911725       16.5120892509        6.9426042760
Co           16.1029789180       16.5116171263        6.9432858560
Co            1.2519822849        3.6511918090        6.9409038860
Co           16.1021157456        3.6516227866        6.9408394840
Co            7.4403882614        1.5069237134        6.9419950272
Co            9.9156218753        1.5068826615        6.9413509052
Co            7.4391124622        5.8000219521        6.9571414260
Co            9.9151270688        5.7983568337        6.9533533268
Co            4.9652957229       10.0814586644        6.9476974773
Co           12.3928678714       10.0804920143        6.9496549399
Co            3.7282026252        7.9387349265        6.9474089960
Co           13.6287262219        7.9390222976        6.9475026227
Co            3.7267431330       12.2257108096        6.9455900086
Co           13.6283157892       12.2271790613        6.9415830368
Co            4.9646510071       14.3678037104        6.9442844970
Co           12.3899197808       14.3687441319        6.9423457723
Co            3.7277495734       16.5119111493        6.9417288384
Co           13.6276653237       16.5117797274        6.9418322281
Co            4.9647322047        1.5075376755        6.9409813935
Co           12.3904586430        1.5064913893        6.9410491986
Co            4.9632976576        5.7938207584        6.9442041153
Co           12.3918386225        5.7961478213        6.9466785521
Co            3.7271339204        3.6506310120        6.9422705898
Co           13.6276269437        3.6508442690        6.9413559544
Co            0.0147066539       10.0824583517        6.9458923328
Co            8.6770511070       12.2272981223        6.9463700307
Co            0.0159547812        5.7946060110        6.9420242185
Co            0.0153815509       14.3683826450        6.9440367711
Co            8.6777965119       16.5115934407        6.9427458165
Co            0.0146043865        1.5075200976        6.9414298971
Co            8.6776923162        7.9401632378        6.9508280350
Co            8.6781440204        3.6514725084        6.9436178384
Co            2.4895009529       15.8034483368        4.9678863521
Co           14.8656219309       15.8032053541        4.9682182477
Co            2.4894067233       11.5161320066        4.9715387529
Co           14.8658383820       11.5154444979        4.9710142579
Co            6.2025631257       13.6595950601        4.9712926008
Co           11.1524905990       13.6591000190        4.9704568354
Co            2.4899154615        7.2299422254        4.9723063029
Co           14.8649326191        7.2301114869        4.9707824264
Co            6.2038140360        9.3725934074        4.9792275757
Co           11.1517006015        9.3719514732        4.9785239355
Co            2.4899620574        2.9430623319        4.9674661221
Co           14.8655705028        2.9424276110        4.9671599541
Co            6.2023665479        0.7983377722        4.9677061964
Co           11.1527534192        0.7985230938        4.9666809054
Co            6.2049733794        5.0871885540        4.9734713465
Co           11.1513088882        5.0867394141        4.9722082249
Co            1.2521013881       13.6597264976        4.9693378659
Co           16.1024828111       13.6596926392        4.9696147319
Co            1.2528201362        0.7987236838        4.9673402460
Co           16.1031650746        0.7988325571        4.9677444648
Co            7.4395506928       11.5146095142        4.9761519378
Co            9.9149715430       11.5145723399        4.9745625151
Co            1.2525114580        9.3733283282        4.9713153824
Co           16.1023552390        9.3725513346        4.9728683821
Co            7.4400578791       15.8019491493        4.9688279878
Co            9.9149215683       15.8021346823        4.9677357001
Co            1.2524717622        5.0869782324        4.9680380380
Co           16.1019604290        5.0868497062        4.9689315010
Co            7.4407528964        7.2301142537        4.9770893365
Co            9.9147465477        7.2304677956        4.9769896386
Co            7.4402370085        2.9422484206        4.9690750072
Co            9.9144141344        2.9420045450        4.9683434862
Co            3.7273455779       13.6601781393        4.9690962349
Co           13.6278558404       13.6599314069        4.9682897016
Co            4.9648306912       15.8025554224        4.9676107766
Co           12.3905675943       15.8027613324        4.9667563998
Co            3.7272288140        0.7986329122        4.9672695657
Co           13.6281419400        0.7987897374        4.9673068666
Co            4.9646083227       11.5168264360        4.9724648896
Co           12.3901201630       11.5149993391        4.9714121865
Co            3.7271656990        9.3731430749        4.9725563062
Co           13.6275599658        9.3730622063        4.9710261515
Co            4.9663765675        7.2313951009        4.9755632185
Co           12.3896986668        7.2312805480        4.9746004031
Co            3.7279338631        5.0869458755        4.9694159157
Co           13.6282322577        5.0869932197        4.9707813167
Co            4.9652830249        2.9431746791        4.9688074720
Co           12.3905193410        2.9422662790        4.9674301854
Co           17.3400985060       15.8027618528        4.9686270309
Co           17.3402431628       11.5164051370        4.9694540094
Co            0.0151209187        2.9426400133        4.9672737289
Co            8.6771801384       13.6592635248        4.9709621245
Co            8.6776809978        9.3726398718        4.9771751658
Co           17.3398623020        7.2305179701        4.9710773733
Co            8.6775352958        0.7983047190        4.9684784236
Co            8.6765891218        5.0874345207        4.9753413002
Co            8.6767092929       12.2472767204        2.9274149030
Co            4.9646221668       14.3903787938        2.9220138794
Co           12.3891770604       14.3902080909        2.9219370451
Co            8.6769274076       16.5344117794        2.9226609507
Co            3.7265550098       12.2472235243        2.9247847139
Co           13.6267731178       12.2468658264        2.9236483102
Co            0.0141707890       14.3906334150        2.9223286841
Co            3.7273085821       16.5337832216        2.9206007755
Co           13.6278335220       16.5337908507        2.9211115739
Co            0.0138415000       10.1032319341        2.9244103550
Co            4.9654841629       10.1031576117        2.9291912111
Co           12.3884034238       10.1026022114        2.9268277460
Co            6.2019493274       12.2475809896        2.9270920250
Co           11.1516575293       12.2470008927        2.9243041829
Co            2.4896260348       14.3907182070        2.9218063996
Co           14.8653875131       14.3905342411        2.9219010004
Co            6.2022639401       16.5343169544        2.9212969773
Co           11.1516384217       16.5340008850        2.9206004609
Co            0.0151916091        1.5302185364        2.9207242705
Co            4.9647731104        1.5301832863        2.9214165202
Co           12.3902722492        1.5295914157        2.9203578278
Co            0.0142920999        5.8180753994        2.9214034837
Co            8.6775047237        7.9605558954        2.9299892015
Co            3.7276689425        7.9603467915        2.9271766741
Co           13.6274003220        7.9603922378        2.9244889803
Co            2.4899150805       10.1038142952        2.9246642966
Co           14.8641039733       10.1035923403        2.9242922174
Co            3.7272434139        3.6736339639        2.9224165835
Co           13.6276266859        3.6744787098        2.9219890567
Co            8.6773134966        3.6748769275        2.9241100326
Co            2.4902338888        1.5295122386        2.9201996146
Co           14.8655431782        1.5297339452        2.9206948607
Co            4.9647342395        5.8176464759        2.9267799378
Co           12.3899615912        5.8177886398        2.9262743777
Co            2.4894032138        5.8176902754        2.9234337298
Co           14.8648923538        5.8179837196        2.9223697797
Co            6.2027110150        7.9605267342        2.9300549752
Co           11.1519168145        7.9604768283        2.9287312961
Co            6.2028047479        3.6734390905        2.9239626632
Co           11.1524095118        3.6737386055        2.9225700593
Co            7.4395003573       14.3900329926        2.9227206339
Co            9.9141838034       14.3902709411        2.9224957475
Co            1.2524705143       12.2473315101        2.9232321986
Co           16.1022083014       12.2473572928        2.9231731254
Co            1.2527913901       16.5339698137        2.9213916592
Co           16.1031570813       16.5338946598        2.9213640156
Co            7.4396775230       10.1038853605        2.9311482350
Co            9.9151448919       10.1031802591        2.9292375046
Co            7.4398098301        1.5303269805        2.9221682679
Co            9.9145279055        1.5303247251        2.9209295546
Co            1.2519265028        7.9608590231        2.9244252362
Co           16.1021026374        7.9609243459        2.9233111933
Co            1.2525131005        3.6736067237        2.9204876037
Co           16.1024432799        3.6739924270        2.9201377351
Co            7.4401759840        5.8180443589        2.9269589979
Co            9.9147102044        5.8182165532        2.9275452119
Co            3.7267719115       13.6781199105        0.9678826065    0 0 0
Co           13.6268307438       13.6792775442        0.9677566307    0 0 0
Co            4.9648304475       15.8219049690        0.9659295297    0 0 0
Co           12.3903426362       15.8223853647        0.9663105661    0 0 0
Co            4.9645665017       11.5346738458        0.9728074739    0 0 0
Co           12.3886098202       11.5354865552        0.9715910454    0 0 0
Co            3.7278232427        0.8186030600        0.9652842132    0 0 0
Co           13.6280065125        0.8181809866        0.9659084524    0 0 0
Co            3.7279143151        9.3925381970        0.9723512681    0 0 0
Co           13.6261902526        9.3927443949        0.9704918640    0 0 0
Co            4.9655398861        2.9630045826        0.9678328719    0 0 0
Co           12.3897680972        2.9626306742        0.9677791436    0 0 0
Co            3.7282281291        5.1069925962        0.9700457019    0 0 0
Co           13.6264614793        5.1063722092        0.9687821625    0 0 0
Co            4.9659333325        7.2498801039        0.9739999909    0 0 0
Co           12.3883090247        7.2491850855        0.9719067276    0 0 0
Co            8.6767881555       13.6774517315        0.9694449520    0 0 0
Co           17.3402378612       11.5360493619        0.9693415197    0 0 0
Co           17.3402861926       15.8225723411        0.9675146729    0 0 0
Co            8.6774764525        0.8183079542        0.9673333231    0 0 0
Co           17.3407752301        7.2504328804        0.9681812426    0 0 0
Co            8.6763866875        9.3929325192        0.9753867304    0 0 0
Co            0.0148831410        2.9625763684        0.9664599690    0 0 0
Co            8.6766962522        5.1071003754        0.9712229010    0 0 0
Co            7.4404091996       15.8217764150        0.9678023516    0 0 0
Co            9.9144302832       15.8221893408        0.9670022229    0 0 0
Co            7.4390744461       11.5345378162        0.9744579066    0 0 0
Co            9.9126947787       11.5346532001        0.9732234855    0 0 0
Co            1.2517893415       13.6784665586        0.9673017743    0 0 0
Co           16.1021486985       13.6790674201        0.9673688781    0 0 0
Co            1.2526402846        9.3930421979        0.9702299379    0 0 0
Co           16.1019548911        9.3933654888        0.9692280204    0 0 0
Co            1.2526421459        0.8182396395        0.9666942285    0 0 0
Co           16.1028749773        0.8186330616        0.9666312710    0 0 0
Co            1.2533314642        5.1069489508        0.9673489630    0 0 0
Co           16.1026159128        5.1068779596        0.9664298731    0 0 0
Co            7.4402425669        2.9626550215        0.9686705924    0 0 0
Co            9.9141996726        2.9627821308        0.9676257833    0 0 0
Co            7.4398180633        7.2507426203        0.9742409205    0 0 0
Co            9.9131359079        7.2502360048        0.9743797989    0 0 0
Co            6.2022844047       13.6774478401        0.9688263665    0 0 0
Co           11.1515906896       13.6786243951        0.9688838599    0 0 0
Co            2.4896179722       15.8224984979        0.9664134002    0 0 0
Co           14.8649202647       15.8225554078        0.9670976515    0 0 0
Co            2.4897488845       11.5352449889        0.9690642567    0 0 0
Co           14.8643109109       11.5365512731        0.9692732071    0 0 0
Co            6.2030240222        0.8188423052        0.9672920621    0 0 0
Co           11.1526424986        0.8191795807        0.9659796082    0 0 0
Co            6.2024628724        9.3924834280        0.9750408586    0 0 0
Co           11.1507776265        9.3925710375        0.9728069005    0 0 0
Co            2.4908361690        7.2504927863        0.9707499527    0 0 0
Co           14.8641821563        7.2497339331        0.9683265553    0 0 0
Co            2.4906046202        2.9624883647        0.9660320244    0 0 0
Co           14.8646123939        2.9623638898        0.9669512249    0 0 0
Co            6.2027483707        5.1071111985        0.9719445046    0 0 0
Co           11.1510069404        5.1066465905        0.9707462703    0 0 0
C             9.7542195105        8.5720325881       14.1446177431
H             9.5110972625        8.7141110572       15.2144211383
H             9.8664249037        9.5660472514       13.6843472980
O            12.0866048320        8.6732033215       14.6338278821
C            14.3317688394        9.4536515840       14.8609714843
H            16.4796616911        9.6827137680       15.0411166394
N             8.6093380520        7.8927717767       13.4730550050
C            11.0697300211        7.8295404850       14.0319680434
C            13.3394725665        8.5653900673       14.1478908052
C            15.7614008839        9.0712625758       14.4819598221
C             8.4773660409        6.4970600502       13.9589892103
C             7.3896898947        8.6373480008       13.8752896833
H            11.3278034533        7.6224328853       12.9732194227
H            11.0815177169        6.8655385671       14.5574191735
O            13.6241073357        7.8124711014       13.2119024921
H            15.9410314612        9.2471549920       13.4073127565
H            15.9696961321        8.0122388933       14.6762010053
H             8.4438831835        6.4618325262       15.0636007430
H             7.5483340869        6.0689966807       13.5587850160
H             9.3081913433        5.8813354756       13.5921146823
H             6.5059299575        8.1722358072       13.4158141429
H             7.4595635493        9.6777899434       13.5276630821
H             7.2699657983        8.6285473448       14.9746851767
C            14.0249172197       10.9326878072       14.5503280137
H            14.1700344623        9.2931196942       15.9398530817
H            14.1052848345       11.1241011421       13.4666790606
H            14.7586224110       11.5737452724       15.0551202680
H            13.0175185108       11.2215295766       14.8722170593