 C 
 1.0000000000000000
    20.1541912979865536    0.0000000000000000    0.0000000000000000
     0.0000000000000000   15.1156434734899143    0.0000000000000000
     0.0000000000000000    0.0000000000000000   23.9999939272770497
 C  
 480
Cartesian
  7.4982741631359273  6.2981847806207982  8.8485727333949491
  2.4597283540584178  1.2596369561241596  8.8485727333949491
  7.4982761785550558  3.7789108683724786  8.8485727333949491
  7.4982761785550558 11.3367326051174366  8.8485727333949491
 17.5753718275483344  3.7789108683724786  8.8485727333949491
 17.5753718275483344 11.3367326051174366  8.8485727333949491
  7.4982741631359273  1.2596369561241596  8.8485727333949491
  7.4982741631359273  8.8174586928691170  8.8485727333949491
  7.4982741631359273 13.8560065173657563  8.8485727333949491
 17.5753698121292032  1.2596369561241596  8.8485727333949491
 17.5753698121292032  6.2981847806207982  8.8485727333949491
 17.5753698121292032  8.8174586928691170  8.8485727333949491
 17.5753698121292032 13.8560065173657563  8.8485727333949491
  2.4597283540584178  6.2981847806207982  8.8485727333949491
  2.4597283540584178  8.8174586928691170  8.8485727333949491
  2.4597283540584178 13.8560065173657563  8.8485727333949491
 12.5368240030516951  1.2596369561241596  8.8485727333949491
 12.5368240030516951  6.2981847806207982  8.8485727333949491
 12.5368240030516951  8.8174586928691170  8.8485727333949491
 12.5368240030516951 13.8560065173657563  8.8485727333949491
  2.4597283540584178  3.7789108683724786  8.8485727333949491
  2.4597283540584178 11.3367326051174366  8.8485727333949491
 12.5368240030516951  3.7789108683724786  8.8485727333949491
 12.5368240030516951 11.3367326051174366  8.8485727333949491
  3.8384564265623800  3.7789108683724786  8.8485727333949491
  3.8384564265623800 11.3367326051174366  8.8485727333949491
 13.9155520755556559  3.7789108683724786  8.8485727333949491
 13.9155520755556559 11.3367326051174366  8.8485727333949491
  3.8384564265623800  1.2596369561241596  8.8485727333949491
  3.8384564265623800  6.2981847806207982  8.8485727333949491
  3.8384564265623800  8.8174586928691170  8.8485727333949491
  3.8384564265623800 13.8560065173657563  8.8485727333949491
 13.9155520755556559  1.2596369561241596  8.8485727333949491
 13.9155520755556559  6.2981847806207982  8.8485727333949491
 13.9155520755556559  8.8174586928691170  8.8485727333949491
 13.9155520755556559 13.8560065173657563  8.8485727333949491
  8.8770042510590184  1.2596369561241596  8.8485727333949491
  8.8770042510590184  6.2981847806207982  8.8485727333949491
  8.8770042510590184  8.8174586928691170  8.8485727333949491
  8.8770042510590184 13.8560065173657563  8.8485727333949491
 18.9540999000522952  1.2596369561241596  8.8485727333949491
 18.9540999000522952  6.2981847806207982  8.8485727333949491
 18.9540999000522952  8.8174586928691170  8.8485727333949491
 18.9540999000522952 13.8560065173657563  8.8485727333949491
  8.8770042510590184  3.7789108683724786  8.8485727333949491
  8.8770042510590184 11.3367326051174366  8.8485727333949491
 18.9540999000522952  3.7789108683724786  8.8485727333949491
 18.9540999000522952 11.3367326051174366  8.8485727333949491
  9.3558658208800498  0.0000000000000000  8.1716559256886043
  9.3558658208800498  7.5578217367449572  8.1716559256886043
 19.4329614698733266  0.0000000000000000  8.1716559256886043
 19.4329614698733266  7.5578217367449572  8.1716559256886043
  9.3558658208800498  2.5192739122483192  8.1716559256886043
  9.3558658208800498  5.0385478244966384  8.1716559256886043
  9.3558658208800498 10.0770956489932768  8.1716559256886043
  9.3558658208800498 12.5963695612415965  8.1716559256886043
 19.4329614698733266  2.5192739122483192  8.1716559256886043
 19.4329614698733266  5.0385478244966384  8.1716559256886043
 19.4329614698733266 10.0770956489932768  8.1716559256886043
 19.4329614698733266 12.5963695612415965  8.1716559256886043
  4.3173179963834105  2.5192739122483192  8.1716539102694750
  4.3173179963834105  5.0385478244966384  8.1716539102694750
  4.3173179963834105 10.0770956489932768  8.1716539102694750
  4.3173179963834105 12.5963695612415965  8.1716539102694750
 14.3944136453766873  2.5192739122483192  8.1716539102694750
 14.3944136453766873  5.0385478244966384  8.1716539102694750
 14.3944136453766873 10.0770956489932768  8.1716539102694750
 14.3944136453766873 12.5963695612415965  8.1716539102694750
  4.3173179963834105  0.0000000000000000  8.1716539102694750
  4.3173179963834105  7.5578217367449572  8.1716539102694750
 14.3944136453766873  0.0000000000000000  8.1716539102694750
 14.3944136453766873  7.5578217367449572  8.1716539102694750
  1.9808667842373873  0.0000000000000000  8.1716539102694750
  1.9808667842373873  7.5578217367449572  8.1716539102694750
 12.0579624332306636  0.0000000000000000  8.1716539102694750
 12.0579624332306636  7.5578217367449572  8.1716539102694750
  7.0194146087340252  2.5192739122483192  8.1716539102694750
  7.0194146087340252  5.0385478244966384  8.1716539102694750
  7.0194146087340252 10.0770956489932768  8.1716539102694750
  7.0194146087340252 12.5963695612415965  8.1716539102694750
 17.0965102577273029  2.5192739122483192  8.1716539102694750
 17.0965102577273029  5.0385478244966384  8.1716539102694750
 17.0965102577273029 10.0770956489932768  8.1716539102694750
 17.0965102577273029 12.5963695612415965  8.1716539102694750
  1.9808687996565171  2.5192739122483192  8.1716539102694750
  1.9808687996565171  5.0385478244966384  8.1716539102694750
  1.9808687996565171 10.0770956489932768  8.1716539102694750
  1.9808687996565171 12.5963695612415965  8.1716539102694750
 12.0579644486497948  2.5192739122483192  8.1716539102694750
 12.0579644486497948  5.0385478244966384  8.1716539102694750
 12.0579644486497948 10.0770956489932768  8.1716539102694750
 12.0579644486497948 12.5963695612415965  8.1716539102694750
  7.0194166241531546  0.0000000000000000  8.1716539102694750
  7.0194166241531546  7.5578217367449572  8.1716539102694750
 17.0965122731464341  0.0000000000000000  8.1716539102694750
 17.0965122731464341  7.5578217367449572  8.1716539102694750
  0.6298184780620798  0.0000000000000000  7.3773893237306041
  0.6298184780620798  7.5578217367449572  7.3773893237306041
 10.7069141270553558  0.0000000000000000  7.3773893237306041
 10.7069141270553558  7.5578217367449572  7.3773893237306041
  5.6683663025587183  2.5192739122483192  7.3773893237306041
  5.6683663025587183  5.0385478244966384  7.3773893237306041
  5.6683663025587183 10.0770956489932768  7.3773893237306041
  5.6683663025587183 12.5963695612415965  7.3773893237306041
 15.7454619515519951  2.5192739122483192  7.3773893237306041
 15.7454619515519951  5.0385478244966384  7.3773893237306041
 15.7454619515519951 10.0770956489932768  7.3773893237306041
 15.7454619515519951 12.5963695612415965  7.3773893237306041
  0.6298184780620798  2.5192739122483192  7.3773893237306041
  0.6298184780620798  5.0385478244966384  7.3773893237306041
  0.6298184780620798 10.0770956489932768  7.3773893237306041
  0.6298184780620798 12.5963695612415965  7.3773893237306041
 10.7069141270553558  2.5192739122483192  7.3773893237306041
 10.7069141270553558  5.0385478244966384  7.3773893237306041
 10.7069141270553558 10.0770956489932768  7.3773893237306041
 10.7069141270553558 12.5963695612415965  7.3773893237306041
  5.6683663025587183  0.0000000000000000  7.3773893237306041
  5.6683663025587183  7.5578217367449572  7.3773893237306041
 15.7454619515519951  0.0000000000000000  7.3773893237306041
 15.7454619515519951  7.5578217367449572  7.3773893237306041
  8.1876402148070380  0.0000000000000000  7.0999426954842608
  8.1876402148070380  7.5578217367449572  7.0999426954842608
 18.2647358638003148  0.0000000000000000  7.0999426954842608
 18.2647358638003148  7.5578217367449572  7.0999426954842608
  8.1876402148070380  2.5192739122483192  7.0999426954842608
  8.1876402148070380  5.0385478244966384  7.0999426954842608
  8.1876402148070380 10.0770956489932768  7.0999426954842608
  8.1876402148070380 12.5963695612415965  7.0999426954842608
 18.2647358638003148  2.5192739122483192  7.0999426954842608
 18.2647358638003148  5.0385478244966384  7.0999426954842608
 18.2647358638003148 10.0770956489932768  7.0999426954842608
 18.2647358638003148 12.5963695612415965  7.0999426954842608
  3.1490923903103991  2.5192739122483192  7.0999426954842608
  3.1490923903103991  5.0385478244966384  7.0999426954842608
  3.1490923903103991 10.0770956489932768  7.0999426954842608
  3.1490923903103991 12.5963695612415965  7.0999426954842608
 13.2261880393036755  2.5192739122483192  7.0999426954842608
 13.2261880393036755  5.0385478244966384  7.0999426954842608
 13.2261880393036755 10.0770956489932768  7.0999426954842608
 13.2261880393036755 12.5963695612415965  7.0999426954842608
  3.1490923903103991  0.0000000000000000  7.0999426954842608
  3.1490923903103991  7.5578217367449572  7.0999426954842608
 13.2261880393036755  0.0000000000000000  7.0999426954842608
 13.2261880393036755  7.5578217367449572  7.0999426954842608
  0.6298184780620798  3.7789108683724786  6.4364606716971542
  0.6298184780620798 11.3367326051174366  6.4364606716971542
 10.7069141270553558  3.7789108683724786  6.4364606716971542
 10.7069141270553558 11.3367326051174366  6.4364606716971542
  0.6298184780620798  1.2596369561241596  6.4364606716971542
  0.6298184780620798  6.2981847806207982  6.4364606716971542
  0.6298184780620798  8.8174586928691170  6.4364606716971542
  0.6298184780620798 13.8560065173657563  6.4364606716971542
 10.7069141270553558  1.2596369561241596  6.4364606716971542
 10.7069141270553558  6.2981847806207982  6.4364606716971542
 10.7069141270553558  8.8174586928691170  6.4364606716971542
 10.7069141270553558 13.8560065173657563  6.4364606716971542
  5.6683663025587183  1.2596369561241596  6.4364606716971542
  5.6683663025587183  6.2981847806207982  6.4364606716971542
  5.6683663025587183  8.8174586928691170  6.4364606716971542
  5.6683663025587183 13.8560065173657563  6.4364606716971542
 15.7454619515519951  1.2596369561241596  6.4364606716971542
 15.7454619515519951  6.2981847806207982  6.4364606716971542
 15.7454619515519951  8.8174586928691170  6.4364606716971542
 15.7454619515519951 13.8560065173657563  6.4364606716971542
  5.6683663025587183  3.7789108683724786  6.4364606716971542
  5.6683663025587183 11.3367326051174366  6.4364606716971542
 15.7454619515519951  3.7789108683724786  6.4364606716971542
 15.7454619515519951 11.3367326051174366  6.4364606716971542
  8.1876402148070380  3.7789108683724786  6.2574491291693075
  8.1876402148070380 11.3367326051174366  6.2574491291693075
 18.2647358638003148  3.7789108683724786  6.2574491291693075
 18.2647358638003148 11.3367326051174366  6.2574491291693075
  8.1876402148070380  1.2596369561241596  6.2574491291693075
  8.1876402148070380  6.2981847806207982  6.2574491291693075
  8.1876402148070380  8.8174586928691170  6.2574491291693075
  8.1876402148070380 13.8560065173657563  6.2574491291693075
 18.2647358638003148  1.2596369561241596  6.2574491291693075
 18.2647358638003148  6.2981847806207982  6.2574491291693075
 18.2647358638003148  8.8174586928691170  6.2574491291693075
 18.2647358638003148 13.8560065173657563  6.2574491291693075
  3.1490923903103991  1.2596369561241596  6.2574491291693075
  3.1490923903103991  6.2981847806207982  6.2574491291693075
  3.1490923903103991  8.8174586928691170  6.2574491291693075
  3.1490923903103991 13.8560065173657563  6.2574491291693075
 13.2261880393036755  1.2596369561241596  6.2574491291693075
 13.2261880393036755  6.2981847806207982  6.2574491291693075
 13.2261880393036755  8.8174586928691170  6.2574491291693075
 13.2261880393036755 13.8560065173657563  6.2574491291693075
  3.1490923903103991  3.7789108683724786  6.2574491291693075
  3.1490923903103991 11.3367326051174366  6.2574491291693075
 13.2261880393036755  3.7789108683724786  6.2574491291693075
 13.2261880393036755 11.3367326051174366  6.2574491291693075
  1.8450194732124385  3.7789108683724786  5.4534158061083025
  1.8450194732124385 11.3367326051174366  5.4534158061083025
 11.9221151222057156  3.7789108683724786  5.4534158061083025
 11.9221151222057156 11.3367326051174366  5.4534158061083025
  1.8450194732124385  1.2596369561241596  5.4534158061083025
  1.8450194732124385  6.2981847806207982  5.4534158061083025
  1.8450194732124385  8.8174586928691170  5.4534158061083025
  1.8450194732124385 13.8560065173657563  5.4534158061083025
 11.9221151222057156  1.2596369561241596  5.4534158061083025
 11.9221151222057156  6.2981847806207982  5.4534158061083025
 11.9221151222057156  8.8174586928691170  5.4534158061083025
 11.9221151222057156 13.8560065173657563  5.4534158061083025
  9.4917131319049979  3.7789108683724786  5.4534158061083025
  9.4917131319049979 11.3367326051174366  5.4534158061083025
 19.5688087808982765  3.7789108683724786  5.4534158061083025
 19.5688087808982765 11.3367326051174366  5.4534158061083025
  9.4917131319049979  1.2596369561241596  5.4534158061083025
  9.4917131319049979  6.2981847806207982  5.4534158061083025
  9.4917131319049979  8.8174586928691170  5.4534158061083025
  9.4917131319049979 13.8560065173657563  5.4534158061083025
 19.5688087808982765  1.2596369561241596  5.4534158061083025
 19.5688087808982765  6.2981847806207982  5.4534158061083025
 19.5688087808982765  8.8174586928691170  5.4534158061083025
 19.5688087808982765 13.8560065173657563  5.4534158061083025
  6.8835672977090772  1.2596369561241596  5.4534158061083025
  6.8835672977090772  6.2981847806207982  5.4534158061083025
  6.8835672977090772  8.8174586928691170  5.4534158061083025
  6.8835672977090772 13.8560065173657563  5.4534158061083025
 16.9606629467023531  1.2596369561241596  5.4534158061083025
 16.9606629467023531  6.2981847806207982  5.4534158061083025
 16.9606629467023531  8.8174586928691170  5.4534158061083025
 16.9606629467023531 13.8560065173657563  5.4534158061083025
  6.8835672977090772  3.7789108683724786  5.4534158061083025
  6.8835672977090772 11.3367326051174366  5.4534158061083025
 16.9606629467023531  3.7789108683724786  5.4534158061083025
 16.9606629467023531 11.3367326051174366  5.4534158061083025
  4.4531653074083595  1.2596369561241596  5.4534158061083025
  4.4531653074083595  6.2981847806207982  5.4534158061083025
  4.4531653074083595  8.8174586928691170  5.4534158061083025
  4.4531653074083595 13.8560065173657563  5.4534158061083025
 14.5302609564016372  1.2596369561241596  5.4534158061083025
 14.5302609564016372  6.2981847806207982  5.4534158061083025
 14.5302609564016372  8.8174586928691170  5.4534158061083025
 14.5302609564016372 13.8560065173657563  5.4534158061083025
  4.4531653074083595  3.7789108683724786  5.4534158061083025
  4.4531653074083595 11.3367326051174366  5.4534158061083025
 14.5302609564016372  3.7789108683724786  5.4534158061083025
 14.5302609564016372 11.3367326051174366  5.4534158061083025
  9.4917191781623877  0.0000000000000000  4.5626690749877099
  9.4917191781623877  7.5578217367449572  4.5626690749877099
 19.5688148271556628  0.0000000000000000  4.5626690749877099
 19.5688148271556628  7.5578217367449572  4.5626690749877099
  9.4917191781623877  2.5192739122483192  4.5626690749877099
  9.4917191781623877  5.0385478244966384  4.5626690749877099
  9.4917191781623877 10.0770956489932768  4.5626690749877099
  9.4917191781623877 12.5963695612415965  4.5626690749877099
 19.5688148271556628  2.5192739122483192  4.5626690749877099
 19.5688148271556628  5.0385478244966384  4.5626690749877099
 19.5688148271556628 10.0770956489932768  4.5626690749877099
 19.5688148271556628 12.5963695612415965  4.5626690749877099
  4.4531713536657485  0.0000000000000000  4.5626690749877099
  4.4531713536657485  7.5578217367449572  4.5626690749877099
 14.5302670026590253  0.0000000000000000  4.5626690749877099
 14.5302670026590253  7.5578217367449572  4.5626690749877099
  1.8450134269550493  2.5192739122483192  4.5626690749877099
  1.8450134269550493  5.0385478244966384  4.5626690749877099
  1.8450134269550493 10.0770956489932768  4.5626690749877099
  1.8450134269550493 12.5963695612415965  4.5626690749877099
 11.9221090759483275  2.5192739122483192  4.5626690749877099
 11.9221090759483275  5.0385478244966384  4.5626690749877099
 11.9221090759483275 10.0770956489932768  4.5626690749877099
 11.9221090759483275 12.5963695612415965  4.5626690749877099
  1.8450134269550493  0.0000000000000000  4.5626690749877099
  1.8450134269550493  7.5578217367449572  4.5626690749877099
 11.9221090759483275  0.0000000000000000  4.5626690749877099
 11.9221090759483275  7.5578217367449572  4.5626690749877099
  4.4531713536657485  2.5192739122483192  4.5626690749877099
  4.4531713536657485  5.0385478244966384  4.5626690749877099
  4.4531713536657485 10.0770956489932768  4.5626690749877099
  4.4531713536657485 12.5963695612415965  4.5626690749877099
 14.5302670026590253  2.5192739122483192  4.5626690749877099
 14.5302670026590253  5.0385478244966384  4.5626690749877099
 14.5302670026590253 10.0770956489932768  4.5626690749877099
 14.5302670026590253 12.5963695612415965  4.5626690749877099
  6.8835632668708175  0.0000000000000000  4.5626690749877099
  6.8835632668708175  7.5578217367449572  4.5626690749877099
 16.9606589158640944  0.0000000000000000  4.5626690749877099
 16.9606589158640944  7.5578217367449572  4.5626690749877099
  6.8835632668708175  2.5192739122483192  4.5626690749877099
  6.8835632668708175  5.0385478244966384  4.5626690749877099
  6.8835632668708175 10.0770956489932768  4.5626690749877099
  6.8835632668708175 12.5963695612415965  4.5626690749877099
 16.9606589158640944  2.5192739122483192  4.5626690749877099
 16.9606589158640944  5.0385478244966384  4.5626690749877099
 16.9606589158640944 10.0770956489932768  4.5626690749877099
 16.9606589158640944 12.5963695612415965  4.5626690749877099
  3.1490923903103991  2.5192739122483192  3.7587425691405838
  3.1490923903103991  5.0385478244966384  3.7587425691405838
  3.1490923903103991 10.0770956489932768  3.7587425691405838
  3.1490923903103991 12.5963695612415965  3.7587425691405838
 13.2261880393036755  2.5192739122483192  3.7587425691405838
 13.2261880393036755  5.0385478244966384  3.7587425691405838
 13.2261880393036755 10.0770956489932768  3.7587425691405838
 13.2261880393036755 12.5963695612415965  3.7587425691405838
  8.1876402148070380  2.5192739122483192  3.7587425691405838
  8.1876402148070380  5.0385478244966384  3.7587425691405838
  8.1876402148070380 10.0770956489932768  3.7587425691405838
  8.1876402148070380 12.5963695612415965  3.7587425691405838
 18.2647358638003148  2.5192739122483192  3.7587425691405838
 18.2647358638003148  5.0385478244966384  3.7587425691405838
 18.2647358638003148 10.0770956489932768  3.7587425691405838
 18.2647358638003148 12.5963695612415965  3.7587425691405838
  3.1490923903103991  0.0000000000000000  3.7587425691405838
  3.1490923903103991  7.5578217367449572  3.7587425691405838
 13.2261880393036755  0.0000000000000000  3.7587425691405838
 13.2261880393036755  7.5578217367449572  3.7587425691405838
  8.1876402148070380  0.0000000000000000  3.7587425691405838
  8.1876402148070380  7.5578217367449572  3.7587425691405838
 18.2647358638003148  0.0000000000000000  3.7587425691405838
 18.2647358638003148  7.5578217367449572  3.7587425691405838
  0.6298184780620798  0.0000000000000000  3.5796866873918818
  0.6298184780620798  7.5578217367449572  3.5796866873918818
 10.7069141270553558  0.0000000000000000  3.5796866873918818
 10.7069141270553558  7.5578217367449572  3.5796866873918818
  0.6298184780620798  2.5192739122483192  3.5796866873918818
  0.6298184780620798  5.0385478244966384  3.5796866873918818
  0.6298184780620798 10.0770956489932768  3.5796866873918818
  0.6298184780620798 12.5963695612415965  3.5796866873918818
 10.7069141270553558  2.5192739122483192  3.5796866873918818
 10.7069141270553558  5.0385478244966384  3.5796866873918818
 10.7069141270553558 10.0770956489932768  3.5796866873918818
 10.7069141270553558 12.5963695612415965  3.5796866873918818
  5.6683663025587183  2.5192739122483192  3.5796866873918818
  5.6683663025587183  5.0385478244966384  3.5796866873918818
  5.6683663025587183 10.0770956489932768  3.5796866873918818
  5.6683663025587183 12.5963695612415965  3.5796866873918818
 15.7454619515519951  2.5192739122483192  3.5796866873918818
 15.7454619515519951  5.0385478244966384  3.5796866873918818
 15.7454619515519951 10.0770956489932768  3.5796866873918818
 15.7454619515519951 12.5963695612415965  3.5796866873918818
  5.6683663025587183  0.0000000000000000  3.5796866873918818
  5.6683663025587183  7.5578217367449572  3.5796866873918818
 15.7454619515519951  0.0000000000000000  3.5796866873918818
 15.7454619515519951  7.5578217367449572  3.5796866873918818
  3.1490923903103991  3.7789108683724786  2.9164122517751441
  3.1490923903103991 11.3367326051174366  2.9164122517751441
 13.2261880393036755  3.7789108683724786  2.9164122517751441
 13.2261880393036755 11.3367326051174366  2.9164122517751441
  3.1490923903103991  1.2596369561241596  2.9164122517751441
  3.1490923903103991  6.2981847806207982  2.9164122517751441
  3.1490923903103991  8.8174586928691170  2.9164122517751441
  3.1490923903103991 13.8560065173657563  2.9164122517751441
 13.2261880393036755  1.2596369561241596  2.9164122517751441
 13.2261880393036755  6.2981847806207982  2.9164122517751441
 13.2261880393036755  8.8174586928691170  2.9164122517751441
 13.2261880393036755 13.8560065173657563  2.9164122517751441
  8.1876402148070380  1.2596369561241596  2.9164122517751441
  8.1876402148070380  6.2981847806207982  2.9164122517751441
  8.1876402148070380  8.8174586928691170  2.9164122517751441
  8.1876402148070380 13.8560065173657563  2.9164122517751441
 18.2647358638003148  1.2596369561241596  2.9164122517751441
 18.2647358638003148  6.2981847806207982  2.9164122517751441
 18.2647358638003148  8.8174586928691170  2.9164122517751441
 18.2647358638003148 13.8560065173657563  2.9164122517751441
  8.1876402148070380  3.7789108683724786  2.9164122517751441
  8.1876402148070380 11.3367326051174366  2.9164122517751441
 18.2647358638003148  3.7789108683724786  2.9164122517751441
 18.2647358638003148 11.3367326051174366  2.9164122517751441
  0.6298184780620798  1.2596369561241596  2.6388991146975185
  0.6298184780620798  6.2981847806207982  2.6388991146975185
  0.6298184780620798  8.8174586928691170  2.6388991146975185
  0.6298184780620798 13.8560065173657563  2.6388991146975185
 10.7069141270553558  1.2596369561241596  2.6388991146975185
 10.7069141270553558  6.2981847806207982  2.6388991146975185
 10.7069141270553558  8.8174586928691170  2.6388991146975185
 10.7069141270553558 13.8560065173657563  2.6388991146975185
  5.6683663025587183  3.7789108683724786  2.6388991146975185
  5.6683663025587183 11.3367326051174366  2.6388991146975185
 15.7454619515519951  3.7789108683724786  2.6388991146975185
 15.7454619515519951 11.3367326051174366  2.6388991146975185
  0.6298184780620798  3.7789108683724786  2.6388991146975185
  0.6298184780620798 11.3367326051174366  2.6388991146975185
 10.7069141270553558  3.7789108683724786  2.6388991146975185
 10.7069141270553558 11.3367326051174366  2.6388991146975185
  5.6683663025587183  1.2596369561241596  2.6388991146975185
  5.6683663025587183  6.2981847806207982  2.6388991146975185
  5.6683663025587183  8.8174586928691170  2.6388991146975185
  5.6683663025587183 13.8560065173657563  2.6388991146975185
 15.7454619515519951  1.2596369561241596  2.6388991146975185
 15.7454619515519951  6.2981847806207982  2.6388991146975185
 15.7454619515519951  8.8174586928691170  2.6388991146975185
 15.7454619515519951 13.8560065173657563  2.6388991146975185
  1.9808446146269594  1.2596369561241596  1.8447574687255648
  1.9808446146269594  6.2981847806207982  1.8447574687255648
  1.9808446146269594  8.8174586928691170  1.8447574687255648
  1.9808446146269594 13.8560065173657563  1.8447574687255648
 12.0579402636202353  1.2596369561241596  1.8447574687255648
 12.0579402636202353  6.2981847806207982  1.8447574687255648
 12.0579402636202353  8.8174586928691170  1.8447574687255648
 12.0579402636202353 13.8560065173657563  1.8447574687255648
  4.3173401659938389  3.7789108683724786  1.8447574687255648
  4.3173401659938389 11.3367326051174366  1.8447574687255648
 14.3944358149871157  3.7789108683724786  1.8447574687255648
 14.3944358149871157 11.3367326051174366  1.8447574687255648
  7.0193924391235978  3.7789108683724786  1.8447574687255648
  7.0193924391235978 11.3367326051174366  1.8447574687255648
 17.0964880881168746  3.7789108683724786  1.8447574687255648
 17.0964880881168746 11.3367326051174366  1.8447574687255648
  1.9808446146269594  3.7789108683724786  1.8447574687255648
  1.9808446146269594 11.3367326051174366  1.8447574687255648
 12.0579402636202353  3.7789108683724786  1.8447574687255648
 12.0579402636202353 11.3367326051174366  1.8447574687255648
  7.0193924391235978  1.2596369561241596  1.8447574687255648
  7.0193924391235978  6.2981847806207982  1.8447574687255648
  7.0193924391235978  8.8174586928691170  1.8447574687255648
  7.0193924391235978 13.8560065173657563  1.8447574687255648
 17.0964880881168746  1.2596369561241596  1.8447574687255648
 17.0964880881168746  6.2981847806207982  1.8447574687255648
 17.0964880881168746  8.8174586928691170  1.8447574687255648
 17.0964880881168746 13.8560065173657563  1.8447574687255648
  4.3173401659938389  1.2596369561241596  1.8447574687255648
  4.3173401659938389  6.2981847806207982  1.8447574687255648
  4.3173401659938389  8.8174586928691170  1.8447574687255648
  4.3173401659938389 13.8560065173657563  1.8447574687255648
 14.3944358149871157  1.2596369561241596  1.8447574687255648
 14.3944358149871157  6.2981847806207982  1.8447574687255648
 14.3944358149871157  8.8174586928691170  1.8447574687255648
 14.3944358149871157 13.8560065173657563  1.8447574687255648
  9.3558879904904764  1.2596369561241596  1.8447554533064352
  9.3558879904904764  6.2981847806207982  1.8447554533064352
  9.3558879904904764  8.8174586928691170  1.8447554533064352
  9.3558879904904764 13.8560065173657563  1.8447554533064352
 19.4329836394837550  1.2596369561241596  1.8447554533064352
 19.4329836394837550  6.2981847806207982  1.8447554533064352
 19.4329836394837550  8.8174586928691170  1.8447554533064352
 19.4329836394837550 13.8560065173657563  1.8447554533064352
  9.3558879904904764  3.7789108683724786  1.8447554533064352
  9.3558879904904764 11.3367326051174366  1.8447554533064352
 19.4329836394837550  3.7789108683724786  1.8447554533064352
 19.4329836394837550 11.3367326051174366  1.8447554533064352
  8.8769498347425149  2.5192739122483192  1.1678446918574799
  8.8769498347425149  5.0385478244966384  1.1678446918574799
  8.8769498347425149 10.0770956489932768  1.1678446918574799
  8.8769498347425149 12.5963695612415965  1.1678446918574799
 18.9540454837357899  2.5192739122483192  1.1678446918574799
 18.9540454837357899  5.0385478244966384  1.1678446918574799
 18.9540454837357899 10.0770956489932768  1.1678446918574799
 18.9540454837357899 12.5963695612415965  1.1678446918574799
  8.8769498347425149  0.0000000000000000  1.1678446918574799
  8.8769498347425149  7.5578217367449572  1.1678446918574799
 18.9540454837357899  0.0000000000000000  1.1678446918574799
 18.9540454837357899  7.5578217367449572  1.1678446918574799
  2.4597847857940525  0.0000000000000000  1.1678426764383500
  2.4597847857940525  7.5578217367449572  1.1678426764383500
 12.5368804347873297  0.0000000000000000  1.1678426764383500
 12.5368804347873297  7.5578217367449572  1.1678426764383500
  2.4597847857940525  2.5192739122483192  1.1678426764383500
  2.4597847857940525  5.0385478244966384  1.1678426764383500
  2.4597847857940525 10.0770956489932768  1.1678426764383500
  2.4597847857940525 12.5963695612415965  1.1678426764383500
 12.5368804347873297  2.5192739122483192  1.1678426764383500
 12.5368804347873297  5.0385478244966384  1.1678426764383500
 12.5368804347873297 10.0770956489932768  1.1678426764383500
 12.5368804347873297 12.5963695612415965  1.1678426764383500
  3.8383999948267458  2.5192739122483192  1.1678426764383500
  3.8383999948267458  5.0385478244966384  1.1678426764383500
  3.8383999948267458 10.0770956489932768  1.1678426764383500
  3.8383999948267458 12.5963695612415965  1.1678426764383500
 13.9154956438200230  2.5192739122483192  1.1678426764383500
 13.9154956438200230  5.0385478244966384  1.1678426764383500
 13.9154956438200230 10.0770956489932768  1.1678426764383500
 13.9154956438200230 12.5963695612415965  1.1678426764383500
  3.8383999948267458  0.0000000000000000  1.1678426764383500
  3.8383999948267458  7.5578217367449572  1.1678426764383500
 13.9154956438200230  0.0000000000000000  1.1678426764383500
 13.9154956438200230  7.5578217367449572  1.1678426764383500
  7.4983285794524308  2.5192739122483192  1.1678406610192202
  7.4983285794524308  5.0385478244966384  1.1678406610192202
  7.4983285794524308 10.0770956489932768  1.1678406610192202
  7.4983285794524308 12.5963695612415965  1.1678406610192202
 17.5754242284457085  2.5192739122483192  1.1678406610192202
 17.5754242284457085  5.0385478244966384  1.1678406610192202
 17.5754242284457085 10.0770956489932768  1.1678406610192202
 17.5754242284457085 12.5963695612415965  1.1678406610192202
  7.4983285794524308  0.0000000000000000  1.1678406610192202
  7.4983285794524308  7.5578217367449572  1.1678406610192202
 17.5754242284457085  0.0000000000000000  1.1678406610192202
 17.5754242284457085  7.5578217367449572  1.1678406610192202
