&CONTROL
   calculation      = 'relax'
   restart_mode     = 'from_scratch'
   nstep            = 400
   outdir           = 'WORK'
   max_seconds      = 85000
   disk_io          = 'none'
   pseudo_dir       = '/leonardo/home/userexternal/epedrett/pseudo'
/
&SYSTEM
   ibrav            = 0
   nat              = 448
   ntyp             = 5
   starting_magnetization(1) = 0.5
   ecutwfc          = 40
   ecutrho          = 320
   occupations      = 'smearing'
   degauss          = 0.01
   smearing         = 'gaussian'
   nspin            = 2
   vdw_corr         = 'grimme-d3'
/
&ELECTRONS
   electron_maxstep = 400
   conv_thr         = 1e-06
   mixing_mode      = 'local-TF'
   mixing_beta      = 0.1
   mixing_ndim      = 16
   diagonalization  = 'david'
/
&IONS
   ion_dynamics     = 'bfgs'
/

ATOMIC_SPECIES
Si 28.085 Si.pbe-nl-rrkjus_psl.1.0.0.UPF
C 12.011 C.pbe-n-rrkjus_psl.1.0.0.UPF
N 14.007 N.pbe-n-rrkjus_psl.1.0.0.UPF
H 1.008 H.pbe-rrkjus_psl.1.0.0.UPF
O 15.999 O.pbe-n-rrkjus_psl.1.0.0.UPF

K_POINTS gamma

CELL_PARAMETERS angstrom
18.80285156974804 0.00000000000000 0.00000000000000
0.00000000000000 15.04228125579843 0.00000000000000
0.00000000000000 0.00000000000000 30.00000000000000

ATOMIC_POSITIONS angstrom
Si           12.9574170434       13.0755947618       12.9423850576
C            15.7073254159       13.8236069861       12.3518275831
C             6.3703400799        5.1777862788       12.3784828293
C            17.0282533435       13.8794778687       12.2132191888
C            17.9345162891       12.6968088615       12.1654625792
C             8.1298638726        1.3122862860       12.1211289970
C            10.4068060032        7.2413663512       12.0755512754
C             8.2754600589        2.6860917413       12.0661480631
C             9.5456681502        3.2251850742       12.0072249489
C            12.1329385520       11.4409761535       11.9311252811
Si            4.2796413994        8.2885218757       11.6237519173
Si            6.3307371108        0.9604254102       11.8741067341
C            14.5086125669       13.6686579573       11.8330191844
C             0.4285575106       13.0744422851       11.8050191070
C            10.6629889491        2.3429756612       11.8137488586
C            17.1982663705        1.3723975639       11.7754426506
Si            7.2905646670        6.7762096004       12.0113377689
C             5.3081474343        4.6072851146       11.7485079203
C            11.7077619070       13.8321743533       11.7317785172
C             9.1377022771        0.3795960383       11.7282043971
C            18.0090380675        7.6675349866       12.0147538152
C             0.3594079485       14.4879975190       11.6711738864
C            11.3451219119        8.1596206476       11.6506835227
C             6.2822285565       14.2556979231       11.6937166728
C            11.9072506124        2.9548357167       11.5937140196
C            16.9205151090        6.8505303898       11.6645178719
Si            4.5792015208        2.7421017731       11.5025402555
Si            9.4035193874       10.5841740199       11.4785199698
C            17.7380784424       15.0088813047       11.4896939631
C             0.6786875017        3.5370497543       11.4613358214
C            10.3284501436        5.8605655495       11.4661143658
C            10.4627311152        0.8973272156       11.4853559819
C            18.1405605222        9.0038530128       11.5864020296
C            16.9135230166        9.6993113762       11.5002750262
C            12.8051203177        7.9772252710       11.4445045041
C             9.5030013295        4.5948844826       11.4305471339
C             9.1514067599        6.9564364372       11.3917137694
Si           13.0683021971        4.3813214333       11.3992949217
C            14.7834637543        3.8606261580       11.2815256017
C             1.4211139571        0.1418164051       11.2988362106
C             1.1652604846        4.8717890293       11.2837472558
C             1.7069705037        2.6214287737       11.2097816470
C            13.3324156008        9.2294817275       11.2200283070
C            15.7793463251        8.9277254598       11.1814159819
Si           17.0109299930       11.5324923983       11.1401099624
C            12.0304319235       12.5559069322       11.1472090165
C            14.8635039044        2.3832961968       11.0868692954
C            15.8062103421        7.5095162033       11.0515165525
C            16.0257071954        1.5087806359       11.0144344155
C             3.9962741804       12.3480475091       10.9655508588
Si           18.8212328622        6.3578635737       11.0335391354
C             5.9924981853        7.7285112704       10.9917350047
C            11.0030241197        9.4639526209       10.9537977649
C            12.3152826471       10.2570581312       10.9594467546
Si            7.9779172409       14.0233241008       10.9701539892
C            11.5219253336       14.9402700871       10.9363842727
Si            2.0196441240       12.1798801793       10.8068121184
Si            7.0771504131        3.5717823171       10.7707769454
Si           17.9624619024        2.7440990551       10.7772671130
C             4.9647851875       11.3887998559       10.7988338492
C             2.4810980254        4.7208904686       10.8080541581
C            13.4302580073        6.8547730828       10.7566106208
C            14.6014441049        9.6570607356       10.7361873873
C             0.5501315543        9.2519198262       10.7083156650
C             8.2483078467       12.1525314088       10.6830626300
C             1.5772733738       10.4264989921       10.6681584278
C             4.6893798784        9.9329780394       10.7006412036
Si            4.8629601335       13.9505294802       10.6176712749
C             2.7975861088        7.9424568617       10.5591608290
C             2.8501356449        3.2673976686       10.6040281475
C             1.3644256825        1.3553954862       10.5939939829
C             8.2823900897        9.4657016241       10.5651194101
C             7.0389855571       10.0028374363       10.5532233944
C             8.4806389550        4.7102923902       10.5140313403
C            13.7622543328        1.8874938353       10.4297307526
C             4.7425629612        5.1581695545       10.4164077503
C             6.0336293076        2.0966278299       10.3609358606
C            14.7414508684        6.8138647156       10.3112285682
C             1.2420316186        7.8723046943       10.4125327408
C            12.5291288391        2.6232391645       10.3396383423
C             5.9377558635        9.1111917676       10.2569980612
C             6.8308400848       11.4054797932       10.2524213912
C             3.4218846053        5.5854001739       10.2430433965
C            14.6512753824       13.6484429252       10.2407747483
C            11.1273227047        6.0638514397       10.1911269444
C            12.5496252480        5.7758905415       10.1515604213
C             2.3017970965       15.2466440717       10.1302907933
C             3.7333996805        0.3481904153        9.9860265879
C            15.8958715770       12.7074741416        9.9308894507
C            14.4546673130       10.7380685507        9.8866862968
C             9.0689272010        7.0339623006        9.8839027371
C            17.3423174118       14.8786919588        9.8404685557
Si            3.0530343715        9.6577244968        9.7892597858
C            12.4371895081       12.3745596352        9.7526950188
C            16.1253196117        0.7413444844        9.7164272322
C             0.4277734769       10.3504587328        9.6438809260
C            18.0249137986       11.2767853885        9.6253952696
C             0.3172120520        1.7162664494        9.6166988000
C            12.9578852981       10.9606985039        9.6031205346
C            12.4595350145       14.8553761004        9.5975413593
C             2.9849590820        6.8018164717        9.5391158938
Si           15.3101010835        4.1418096192        9.5322882387
C            13.6627835028        0.7846774029        9.5340636661
C             8.2568138658        5.7622385370        9.5132548362
C             5.7767554859        4.7837647623        9.5153117871
C             8.5382733095        8.4278415641        9.5137207014
C            14.9002061173       -0.0655856349        9.4412022462
C             9.0301935544       12.5324695042        9.4045533995
C            13.3053111307       13.4693756482        9.3752686596
Si            6.4105031875        6.6459666027        9.3518285542
C            10.3945718951        6.7606460416        9.2802535713
C            16.9792570701        3.3387158462        9.2313818557
Si           10.3224922080        9.0962396067        9.1731166513
C            16.9573385979       13.5260254076        9.1227259979
C             1.5419865612        7.2097425902        9.0501697734
C            12.0461499091        3.0343536664        9.1076246747
C            15.4954214507       11.5220365182        9.0846578872
C             4.2767452974        1.2737905865        9.0892975726
C            18.1654889811        5.9325081631        9.0679249846
C            14.9963859071        5.9971072800        9.0269243475
C             5.7582066660       13.8554207915        9.0339774600
C             2.5972429275        2.8475568650        9.0220630646
Si            0.9254116708       14.0857441698        9.0461748909
C             5.7498805142        1.3942094657        9.0068512475
C            18.4768247311        0.5258996780        8.9755312017
Si           10.8170355999       12.5133896213        8.9244915372
C             8.5162366584       13.9262363266        8.9024953769
C            18.2087426155       12.6899360460        8.8974544071
C            10.6255759606        3.3109733898        8.8432745331
C             9.8027458464        2.0936939333        8.8373187052
C            16.8086505368       10.6671501214        8.8126030467
C             1.9733463878       12.5835467895        8.7888547474
C             6.0082941156        8.8609226289        8.7247177509
C             1.1456868546        2.7059407334        8.6667580372
C             0.7135457043        6.1119982667        8.5974999702
C             6.1532455820        0.0276114511        8.6232730051
C             6.6880844514       11.3756585105        8.5968326140
C            17.3064711709        7.0780401281        8.5282898246
C            10.4005594590        0.7994082941        8.5423221903
C             7.4489875527        8.1565099585        8.5175569738
C            16.5016533353        1.7442170360        8.4759418740
C             8.4934405570        2.2429023864        8.4564106563
C            10.4407979909       10.7888550165        8.4637230919
C             9.0935344098       11.4065338565        8.4271918761
C            17.8338619001        4.3724034546        8.4083222826
C             9.7000451249       14.6762501966        8.3456364886
Si           13.1551550212        5.7882017967        8.2884052001
C             5.0946120169        7.6170894536        8.2638152559
C             3.5785802977        2.2016692392        8.2566692761
C             3.5864176500        7.1697411616        8.2066014691
C            11.8866481142        0.4209732055        8.2379730398
C             0.9068758617       10.1948041103        8.2272564132
C            10.1853350955        4.5031294957        8.1693798873
C            17.5174808783        8.3926089156        8.1246429919
C             5.5997683781        4.4781841281        8.1696067005
C             8.6774122089        4.9652105646        8.1517405187
C             5.8678306315       10.2031974204        8.1341708982
C            12.7957395365       10.4237337218        8.1197570539
C            15.9800095552        6.6385891769        8.0823114672
C             0.4360359327        3.8814645645        8.0874785967
C            14.5446646974        3.1742435669        8.0835899337
C             6.3140357430       12.8372927971        8.0796426716
C            13.1315093986        1.2887529933        8.0528281714
C             2.2658233531        9.4963717463        8.0311988727
Si           13.5111683333        8.6116580170        8.0228437956
C            10.6585749249        7.5074315214        8.0022235531
C            14.9001456174       14.4983642053        7.9795072239
C            13.0268823790        2.9478970482        7.9538274700
C            16.4051903429        9.4075372801        7.9176581397
C             1.2310539165        5.0794582564        7.8843331059
C             2.1636319779        7.9901760278        7.8892992910
C             8.0733322286        3.6076878841        7.8799292395
C            13.8914676825       13.3043325491        7.9015018722
C             6.5953643567        3.5137728384        7.8299522940
C             8.0095989251       10.8923533394        7.8353798997
C            14.8560601233       12.0194087824        7.7853937608
C            17.6703378175        1.0023901321        7.7520673805
C             6.2935302197        2.1128384626        7.6863065434
C            16.3153561509       13.8917887226        7.6822592422
C             7.6216343424       13.7078008437        7.6237341138
C             1.1638129767       11.6816442032        7.6308596945
Si            3.3115822421       12.9270285956        7.5452996271
C            18.5580352464        9.4756331941        7.4931355168
C            15.3158481339        1.9061458543        7.5038420025
C            11.4820726749       10.4738307558        7.4632418038
C             7.6503782783        1.4122279435        7.4541141383
C            10.4791568954       13.7750543259        7.4566436580
C            17.3392742440       10.4380436596        7.4305356672
C             6.9898743028        0.0309817517        7.4015480572
C            18.5491350136       12.4466561101        7.3788103794
C            15.0368973570        9.4172126870        7.3322934001
C            14.3576003167        0.6972249808        7.2771330630
C            14.1951938779       10.7662860001        7.2728971344
C            11.8953704895        6.9844009183        7.2032803747
C             0.7954373479        2.6256026276        7.2041472158
C             3.5539501541        6.0118167788        7.1339795650
C             2.4084712257        5.0666326723        7.1265964804
C            12.4918032056        4.2219867467        7.1298180291
C            11.7701710383       14.5047114312        7.1031347111
C             7.9933947022        7.8153055829        7.0767839120
C             5.1630948263       12.7691143483        7.0668035743
C             4.7745917723        5.0053533516        7.0357733309
C            17.2783015591        4.4712132178        6.9969299507
C            11.0049938433        4.6595545103        6.9406289283
C             9.5028321971        7.4298033553        6.9010387927
C            15.9990782968       12.6041904312        6.8936987566
C            17.3065043612       14.7361688596        6.8692991428
C            18.4177528627        1.8704298458        6.8034690670
C             5.5485930221       10.2739563503        6.8048913726
C             2.7865134771       10.0656230116        6.7542187180
C            15.7679394870        6.8660889644        6.7383507372
C            12.7620645446       13.4972194769        6.7124823913
C             4.0559960783        2.2982204353        6.7153982707
C            17.2970537266       11.6865356339        6.6961159835
C             8.3146182423       10.1050069845        6.6696609610
C            18.6084636259       13.7659852893        6.6520870805
Si            7.6921529908        5.9738869008        6.6402935822
Si           15.5818823020        3.9304035333        6.6419217828
C             2.4574879481       11.5022878763        6.6107950521
C             1.4416984546        7.8168454062        6.5544453053
C             5.4873669255        1.7529123493        6.4663987325
Si            5.3072715622        7.4418248240        6.4605844464
C            12.6551374315        8.0452614082        6.4017515079
C             8.6304416200        3.3143529058        6.3900026478
C             8.3494435498       13.1673847313        6.4105584013
C             3.3944836976       14.3961212301        6.3773350360
C             9.7377072601       13.1007541219        6.3558426529
C             5.1722613362       11.4903442577        6.2887803422
C            11.0017201039        9.9327249576        6.2674092956
C             0.4403976037        8.9218036529        6.2431729066
C            11.2855166165        6.0320215048        6.2210004118
C             2.6486726046        4.0691121478        6.2295765059
C             5.9056179179        5.6796475126        6.1883420122
C             5.9807335125        0.2528307525        6.1835311267
C             4.1298495811        3.8317061385        6.1736052880
C             4.8887867897       14.1457745974        6.1788756601
C            14.5524784607        6.3986915861        6.1167973447
C             8.2735717347        1.8681080910        6.1187988876
C             1.7937958299        2.8524244552        6.0950973085
C             7.4736957142        9.0157319924        6.0573725114
C            18.0913731414        4.8119062024        5.9475086088
C             5.9201607004        9.0869474840        5.9674632641
C             9.5997599582        9.9710633010        5.9587238539
C            14.4151530365        5.0714717282        5.9565825124
C            15.5567769968        2.2663260605        5.9514995865
C            10.1162234786        3.7593471046        5.9244393645
Si            0.3199929746        6.3579755160        5.8927574790
C             2.5376468444        0.3873869272        5.8738259702
C            13.8955869160       11.0189942624        5.8686264597
C            10.0055681345        6.6842009975        5.8262593925
C             3.6374522841        6.8847449981        5.7688433187
C            14.0796580132        0.4053009516        5.7794638632
C            12.6883476535       14.7499492722        5.7613091128
C             2.9646793467        1.8164940419        5.7424303203
C            13.0867449488        4.5110526412        5.7219321351
C             3.1562795962        9.2894925019        5.6870211131
C            12.0262857009       12.6105551973        5.6794982943
C            10.9216291790        2.5387209182        5.5947105935
C             2.5420887645        7.9162681537        5.5645881736
C             0.5876928448       13.9828173269        5.5198255780
Si           17.0952454356        7.4162708295        5.4617972712
C            13.7115134040        7.4143097069        5.4612426607
C            18.0694704131        1.8028900709        5.4710680084
Si           14.8624613486        8.9731670437        5.4374905667
C            11.9732161413        9.1081092205        5.4414262783
C            16.6425574031        0.0260158991        5.4335937762
C            15.4636420571       12.9774406656        5.4268157277
C             7.4296311489       12.6926179311        5.4277251543
C            10.6673770375       12.5515674946        5.4029358371
C             1.2033934944        0.2513886268        5.3841751779
C             7.5305334287        2.8800383385        5.3232742151
C             6.0091164344        2.6155741532        5.3064005542
C             2.9666783417       11.9615373046        5.2831827429
C            17.4176099331       11.4870801849        5.2355180446
C             8.9965810681        0.9797961717        5.1816270166
C            14.2437510685        1.8540905615        5.1779574910
C            14.2433293345       12.1690508245        5.1661241661
C            10.3929638627        1.3720448901        5.1191102944
C            16.6545145826        1.5369123879        5.1139382858
C            13.2894188273        9.9163454398        5.1107298371
C            15.2405785119       14.5044572101        5.1074695790
C            12.2503946847        5.5893015791        5.0593871413
C             4.3766966898       11.3440038836        5.0622483541
C             5.1053062192        3.7942882085        4.9956867042
C             0.2519886050        9.4004216609        4.9795139508
Si           12.6392125743        2.8902356379        4.9061134035
C            17.7687081414       10.1169125400        4.8572627827
C            16.6683858572        9.2027604948        4.8346888354
C             5.8394400130        5.0565444059        4.7932186674
C             7.9399901062        6.0426332688        4.7465640806
Si            5.8617900956       13.4657821005        4.7124648593
C             6.6923208428        0.1040909653        4.6336386636
C             9.3942496231        5.9646954432        4.6258848056
C             1.2758688268        2.6445419683        4.6282110390
C             0.4529991892        1.3486950934        4.6200395983
C             4.0481756983        9.8750434989        4.6113763593
C            17.9874487281        4.3170382952        4.5777464579
C            10.0799465566        4.5551339007        4.5830439074
C             7.8452681407        8.9738786677        4.5836851615
C            16.6923656875       12.3818772019        4.5408790138
C             9.2107680842        9.7991772971        4.5316631921
C            12.9069348724       12.4747282683        4.5024025714
C             5.4356228332        9.1407648099        4.5092637667
C             7.7176660117       11.8166807805        4.4482529732
C             8.1984591839        0.1712785506        4.3672963532
C             3.8902210128        6.5142559553        4.3568253794
C             1.2102556810       13.3837553802        4.3370294644
C            12.1039831101       14.7615053723        4.3351812337
C            12.9553573143        6.7871455418        4.2948147473
C             2.7128927926        2.4021786658        4.2984651618
C             2.3792296169       12.6149583132        4.2176282995
C             1.9196363475        7.6307104225        4.1437391065
C             1.0328791303        6.3182521910        4.1032551881
C            11.2150056699        0.7511887973        4.0786496447
C            11.2595027993        8.5133305815        4.0714318257
C             7.1748047388        4.8775652059        4.0313535327
C            10.3467988962       11.9795464427        4.0190503891
C             7.9359167223        3.4323138818        4.0019281717
C             7.6117329129        7.3935955738        4.0080285760
C            11.4439057298        4.9859350136        3.9897161911
C             5.5947692636        2.0795174701        3.9577446693
C             0.5466899992        3.8176188475        3.9311579878
C             8.9793673456       11.3054035503        3.9099894742
C             5.1891918306       11.8709521868        3.8773285238
C             5.0291886463        5.8927973807        3.8600746494
C             1.5661725806        4.9567802515        3.8293280917
C            16.9216740968        4.5660348230        3.7440852326
C             6.6724956293        9.6938448555        3.7633583365
C            14.6985604355        2.2391516111        3.7502852544
C             1.1183658656        8.8276920217        3.7019106140
C            16.7378480214        6.8682264433        3.6714701714
C            15.9564507720        5.6680250911        3.6285253954
Si           17.2168829857       14.5182414827        3.6845812680
C            11.7257243719        7.3301854776        3.6510801798
Si           12.8919255264       10.8124431643        3.6416329931
C             6.6014415867       11.2302716409        3.6296963061
C            16.1924139967        1.9155567056        3.5752774681
C             9.3312931315        3.8042951593        3.5668053832
C             5.9492561542        0.8800490363        3.5408228064
C             4.8403871377        3.2795078505        3.4973261836
C            12.4017431877       13.5298530360        3.4694140035
C            15.2701639206       14.6218443059        3.4605715632
C            10.2509190380        9.4957631989        3.4411947760
C             3.3565310532        3.1933491213        3.4274032494
C             3.1219252735        7.2579159989        3.4143664872
C             3.2786425047       10.2799587752        3.3833405956
C            11.1084323469       10.7608853491        3.3107618813
Si            5.8277080787        7.6589326244        3.3259721140
C            12.2105902519        3.8315269313        3.2302994144
C            -0.0344860265        0.7292197265        3.2004048118
C             1.9572079583       10.0040147152        3.1444680515
C            17.0193765435       12.6865016428        3.1227773907
C             9.5337056518        6.3397202124        3.1211832123
Si           16.2581784404        8.5807637330        2.9878471381
C            11.0234352366        6.1248666093        2.9453646075
C            14.7653014751        5.5537355840        2.9465837872
C            15.2107911385        0.9776296994        2.9114571455
C             3.1181656272       12.6875372959        2.9089895836
C            13.8701247439        6.7833606388        2.8765417885
C             2.5451537331        4.3272886590        2.8381076951
C            11.0308845274       12.8877385540        2.8551775495
C             8.5138024807        7.4210772148        2.8296433834
C            10.6384464824        1.2989373920        2.8028549062
C            14.4727760382        8.2876536553        2.7918338537
C             4.0860186813       11.4969967759        2.7647997567
Si           18.3913620938        6.6620762403        2.7219399600
Si           14.0471556260        3.8077901402        2.6707827510
C            17.1750141352        2.5859148051        2.6307860406
Si            1.0904841300       14.2475109209        2.6263335851
C            14.7394777409       13.4611096419        2.6177445282
C             0.1231056580        8.4729094043        2.5681040120
C            10.0720207115        2.6983752086        2.5395078826
Si            8.4629832842       14.4824323432        2.5338805976
C             6.9021913156        4.6065291753        2.5295234542     0 0 0
C             0.5333449216        3.1279558721        2.4915086976     0 0 0
C            18.3952854704        1.9937836172        2.4719430476     0 0 0
C             8.6246445062       10.9521507894        2.4637926431     0 0 0
C             4.9767403420        5.4191755995        2.4174478097     0 0 0
C            17.1140136756        4.0489937176        2.3780865472     0 0 0
C            15.7068497580       12.4245061991        2.3835910249     0 0 0
C             7.2956539914       11.7072129081        2.3530040446     0 0 0
C             5.5001133534        4.1159265250        2.3759175189     0 0 0
C            13.4122559633       13.1738416712        2.3570347017     0 0 0
C             9.2020460553        4.9576326693        2.3288034353     0 0 0
C             1.0162590736       10.6812268974        2.2929405724     0 0 0
C             6.6947518287        9.0120390473        2.2840261227     0 0 0
C             9.1152405389        9.6473511987        2.2539369518     0 0 0
C            10.2173586500       13.9450718955        2.2349143698     0 0 0
C             6.2902367773        0.3663243018        2.1925882730     0 0 0
C            11.1480815364        3.7027169960        2.1649504509     0 0 0
C             3.6414593529        7.3766290693        2.1442621312     0 0 0
Si           -0.2017843038       12.1340155982        2.1422089544     0 0 0
C            11.5539011705       11.6741827546        2.1398991954     0 0 0
C             2.9148235834       -1.2586392858        2.1043965576     0 0 0
C             7.1414536597       13.1378686998        2.0796899029     0 0 0
Si            8.1583701579        2.6497896331        2.0897447942     0 0 0
C            10.4600583296        0.1808243587        2.0634611424     0 0 0
C            15.3527272805       11.1034826871        2.0305459295     0 0 0
C             8.1924917093        8.5608025813        2.0466918370     0 0 0
C             6.0073737699       13.9333779574        1.9484297711     0 0 0
C            13.6773423520        9.1430255100        1.9437864117     0 0 0
C            13.9245741304       10.6573775027        1.9371109063     0 0 0
C             0.0070674900        9.7340673917        1.9222686228     0 0 0
C            16.4197003511       10.1255505901        1.8890263671     0 0 0
C            12.9430840619       11.8229956741        1.8462234900     0 0 0
C            10.6498064116        4.9370256765        1.8334262176     0 0 0
C             4.6110231417        6.5977436490        1.7562655304     0 0 0
C             7.5161243589        0.9185775616        1.7471461200     0 0 0
Si           13.9603590996        1.6203764734        1.6490678029     0 0 0
C             1.5453139460        3.5966365188        1.7085200212     0 0 0
C             4.8524380103       10.7790366228        1.6970469604     0 0 0
C            13.0128429620        7.0639365465        1.6363195697     0 0 0
C             7.9534307763        4.5163306147        1.6258105868     0 0 0
C             5.8173342120        9.9831488283        1.6025187562     0 0 0
C            17.7704797241        5.1781877620        1.5770576099     0 0 0
C            17.6692724763       10.5227913888        1.5227914979     0 0 0
C             2.2341248483        4.7190607197        1.4367324432     0 0 0
C            12.7097560761        8.2492385515        1.2947911296     0 0 0
Si            4.3435023045       14.3847932264        1.0096474659     0 0 0
Si           16.1709883841        5.0026647477        0.7567201927     0 0 0
C             4.7398843366        8.4100370172       14.5731263890
H             4.3237234786        8.8818670697       15.4753438378