&CONTROL
/
&SYSTEM
   ntyp             = 1
   nat              = 640
   ibrav            = 0
/
&ELECTRONS
/
&IONS
/
&CELL
/

ATOMIC_SPECIES
C 12.011 None

K_POINTS gamma

CELL_PARAMETERS angstrom
18.80285147445458 0.00000000000000 0.00000000000000
0.00000000000000 15.04228117956366 0.00000000000000
0.00000000000000 0.00000000000000 40.00000000000000

ATOMIC_POSITIONS angstrom
C 15.5587299306 9.5516926698 6.7455396553 
C 3.9519583299 13.0760098591 2.8244625531 
C 1.9076789473 14.5453859689 -0.7459857465 
C 0.3123269183 2.8164734986 6.5686492228 
C 8.4967711284 14.6539706741 11.3344765569 
C 13.1062376071 1.6582989331 1.8127890656 
C 11.9069701119 5.0324994503 0.8513111700 
C 11.0979183761 9.5349545025 13.2272246107 
C 8.6156259013 4.3580309822 6.6504739119 
C 7.4555710123 10.2438057442 10.4861461119 
C 6.4927329702 3.2854790585 12.3054570733 
C 10.5711151314 11.1733329754 7.8244275844 
C 15.9368870535 3.1006682097 5.4097696336 
C 15.9889975523 14.4847214659 4.7991117740 
C 11.8288996168 9.1527104907 12.1551980834 
C 8.6737203615 1.8457628890 9.4807405944 
C 2.7929283530 14.9317577737 8.5147865334 
C 6.1078101358 7.5586049711 12.2561124891 
C 11.6843527102 7.2043029978 9.4859726140 
C 4.4050530905 10.8269770122 10.7356526787 
C 0.7289436044 2.6595079081 1.4620211577 
C 17.0388854337 5.1416096355 5.1560682366 
C 11.8956152142 2.1635285354 4.0287349392 
C 17.1625602406 4.6843112038 0.3908713643 
C 16.9702687064 12.3186897912 11.7467218226 
C 7.6967730605 12.9592589132 8.4373754257 
C 2.9227957061 14.4419093612 5.3763876206 
C 2.2732345747 7.1351127453 12.1326877934 
C 8.6365747254 11.4938932654 0.5725034646 
C 9.7036391138 14.4733365635 5.6829752439 
C 8.8510380037 5.7110073975 15.0070417694 
C 18.1260769303 1.9143500573 6.3963755101 
C 9.8121653911 4.0498590707 5.8011461481 
C 3.0334345507 12.1931075659 0.6992654892 
C 1.5010969453 8.3460975622 4.4341134100 
C 9.5308472822 2.5837409125 1.2644672690 
C 6.5331358164 11.4202255001 7.1952602948 
C 4.5692933542 1.5632131067 2.1479525290 
C 10.4926571677 8.0132621530 9.7036518525 
C 3.3044513484 2.6997110226 8.2171320496 
C 3.1454352992 13.9116420079 14.1700798314 
C 16.0336941146 4.5134487309 12.6091313740 
C 11.1724670557 6.8071005997 12.0933345725 
C 16.9751158091 6.4183034510 14.9319155208 
C 16.6653125093 10.1546755826 0.0319753201 
C 4.5146046373 8.7632557399 3.9121475122 
C 9.6141933031 9.0836303247 3.4579978022 
C 2.4218241601 12.8803470150 3.1769717133 
C 4.2159892120 11.5760755711 14.3083660181 
C 7.3112636710 3.6514800096 1.4127332877 
C 11.7253202006 5.7910391869 9.3976952465 
C 16.3211922164 14.0379813194 13.8807071705 
C 17.9848330170 8.0302296949 7.3097779705 
C 2.6743455057 1.8498047305 3.9561896175 
C 2.1004872910 9.7430695226 1.1102426990 
C 5.2737736238 14.8099643193 9.0185898061 
C 13.7219003981 12.3627275744 9.1386598153 
C 17.6047265821 0.7480685460 9.5145742096 
C 16.9173421128 3.2368723838 8.1010136640 
C 4.6079354049 14.1105250229 11.5992046489 
C 13.3965157379 8.6328038309 -1.0381720216 
C 16.7783271732 5.8041171472 2.7578060185 
C 15.5245365584 12.5264507778 11.9528823966 
C 2.1835518517 1.5148554300 11.3389100476 
C 15.4219714062 7.6723610085 10.2223230395 
C 16.2569573552 5.5762362866 -0.1410149075 
C 4.8346459274 3.6248472645 9.9499219361 
C 17.5708429431 9.3696398763 7.8942009718 
C 9.6832610700 7.0272978988 4.7298437637 
C 1.3410241645 6.1118957543 5.7874953322 
C 4.1642564327 3.6498374536 3.4026446791 
C 11.5067286991 2.9242727737 12.5382427381 
C 0.2096203724 10.5695799307 6.0120391654 
C 13.5182982078 10.8864602568 -0.9526302380 
C 0.4488852700 -0.5607856990 -0.3967644624 
C 5.9563118825 7.2749672938 5.0680728249 
C 16.6454848128 7.0516166891 -0.1892336408 
C 11.5285998967 12.8479600068 5.1866753544 
C 11.3220938810 -0.1552541933 3.1466763930 
C 5.8415951640 7.3218759581 13.8383157332 
C 1.8265325001 3.4609617422 1.4340576429 
C 0.1119087324 1.4071433024 9.6488967639 
C 11.1191089355 14.7553033776 11.3982158828 
C 12.3365342413 6.4933540093 14.8812328360 
C 7.8157994455 3.1798697929 11.3450373371 
C 8.2372276787 9.3268624827 8.3214439735 
C 15.9567744091 9.3154827215 8.1904050489 
C 10.0612697259 2.4076410026 12.9609015717 
C 14.8861072377 10.4047379784 2.9047602830 
C 2.3440796768 9.5535261281 4.1208969474 
C 13.1502077862 9.8811392985 6.5591931514 
C 13.4705475373 11.3816283854 11.9769014279 
C 6.3349151030 1.4012841287 4.7784774900 
C 13.7850391279 2.4922404302 12.1081116261 
C 12.4386928818 6.1252478751 -0.1269615355 
C 10.7674208373 4.6294521897 10.9453628618 
C 4.1491572413 14.8710607885 14.3735734146 
C 4.6007295006 9.7378513276 4.9934918415 
C 5.3868604697 5.6958285394 2.8933831372 
C 2.0123658210 7.9068693675 13.4114602404 
C 17.2372121736 12.7803230756 7.6834035385 
C 5.7357573029 5.8849806979 14.2955123925 
C 16.3173411247 10.4257272918 4.6495888256 
C 13.6472455227 10.7509952253 2.4669653414 
C 13.2144324747 9.1219955176 10.0279043749 
C 4.7749517245 0.9792785620 8.7311917060 
C 4.4727677070 2.5771123828 10.8594049431 
C 2.9298131401 6.4480934406 2.8845059017 
C -0.2785311792 8.9211614198 11.6179644336 
C 11.1184408011 5.7995853893 14.7699484473 
C 5.9654136473 0.4191847162 6.4688874912 
C 0.7809810376 6.5993817324 10.1516039119 
C 1.8468859806 14.0275657550 9.1030113199 
C 0.8122022102 2.9727646892 12.8767190340 
C 18.1862293697 12.0464935059 3.9266494152 
C 12.3537870855 5.2011863608 2.4232866975 
C 9.0022134068 12.4876511621 4.8461261105 
C 1.1781282200 13.2117756626 6.8013836182 
C 18.2135104547 11.6804742628 7.9387477361 
C 16.4948783251 14.8783429464 6.9804941585 
C 9.2680393468 5.5113180678 8.9201175535 
C 10.9556892879 9.4715148050 9.6937829992 
C 5.7414651127 11.7653074800 13.9447739365 
C 16.3844801398 7.7733317533 14.4586158964 
C 2.3294766052 12.3747811650 -0.4781927233 
C 10.7758296892 2.1293269765 0.7707087450 
C 9.4960633856 11.0173236715 6.9851101350 
C 8.9108222505 10.8111319704 13.8365959875 
C 0.7207195209 5.6497494846 7.0488447035 
C 5.2521621393 11.3882316909 9.6744439453 
C 18.9174485557 0.6425607874 0.0093780509 
C 8.0326703186 2.3500704123 1.5977912848 
C 14.5380259776 5.6156047154 3.4261732311 
C 5.1114460496 0.9040481958 5.4080288129 
C 0.9230306316 0.7389058738 10.8647521112 
C 9.8655993566 10.5707523305 3.4783895887 
C 11.2921398351 0.8373358295 8.1761918807 
C 4.1877148451 8.3105820899 10.7623066544 
C 8.4520349022 8.8676641446 0.6574344981 
C 2.1919133849 5.1945338997 3.4178046950 
C 12.9291520463 12.4389580367 0.6578959103 
C 8.1763172929 8.7844319906 3.2560817006 
C 18.1625363507 4.6822271932 11.1567167709 
C 6.1392406911 0.8841359830 13.4391007010 
C 18.1296252237 1.0127730723 5.2043545768 
C 3.5470452711 5.5230201676 0.3341861124 
C 10.6153736031 6.5969296140 5.8893020143 
C 11.9368527895 8.5493261361 -0.8161096013 
C 6.5155815112 13.5268273561 4.2315740103 
C 10.5483102020 13.1135081193 0.9486179088 
C 16.9501430306 4.0257151229 4.2550855293 
C 16.8633567895 10.0816858715 1.5312115539 
C 11.2489723154 5.0214372385 3.5117473318 
C 16.5041593368 10.2969992130 6.0869037577 
C 13.7551432140 3.5129153744 7.3452502901 
C 14.8353252380 0.4895927047 12.9631382224 
C 13.3300860872 1.2470464110 6.1165788583 
C 4.5916324569 12.1515597743 8.5392813319 
C 8.2355665050 4.5860778920 1.8134941244 
C 11.7901212400 14.6738371640 8.6692227701 
C 14.2769963408 5.5499794128 9.6753458903 
C 11.8863625225 13.1421238639 1.4668973896 
C 3.4906640130 11.0222279304 13.0581266071 
C 9.5151246155 14.3316955037 9.2081542121 
C 18.4242750306 3.5177114323 2.1467915974 
C 4.2676508359 10.5651210895 2.2470646669 
C 3.4703393825 9.6293798409 12.6084712734 
C 1.4980770168 4.9651097266 14.2946313410 
C 14.2078120047 14.7544390944 0.3407316494 
C 18.3325201430 14.6604430683 3.0413507638 
C 0.2403128228 13.1979206056 12.2122774403 
C 15.8532166425 10.3658523939 10.5722379389 
C 16.3508085049 4.3244778080 2.7948942624 
C 12.8542206677 4.8971418189 9.2500505058 
C -0.0486946461 4.1926626583 9.7057155677 
C 15.3284105760 5.6048688979 11.8787713954 
C 10.7949468098 12.0704109974 12.9173260252 
C 0.2963501198 11.0975999070 4.6139811249 
C 13.8966908535 5.9512238613 12.3080460136 
C 14.7539180194 2.7441198076 0.2451966420 
C 15.9409356485 5.3945950205 14.8106840325 
C 11.8424351849 11.4123239375 4.7115134566 
C 2.8367600197 3.0345189928 0.4781050959 
C 16.9432786684 15.1766203568 10.6317507068 
C 8.5692021563 9.9316823613 9.6715854214 
C 16.6115304673 5.0189722653 9.3958323991 
C 5.4311371270 2.4491177538 11.8696448462 
C 12.6602809183 11.8403655316 8.4794738071 
C 0.7309785039 9.6926902118 0.5502154060 
C 14.3361527942 9.8595393501 -0.9557645741 
C 12.5939103346 13.7508280733 5.4570605682 
C 18.2476121506 6.1307413656 15.0661963994 
C 8.8876898164 11.4930461586 3.7889796311 
C 17.2514123638 15.8568609109 11.9832074094 
C 2.9449437617 0.7589726119 12.5375319551 
C 1.0982801395 7.8000746563 5.8569048532 
C 5.1383187891 8.6985451956 0.7903609204 
C 18.3124777638 9.5313861756 9.2361726182 
C 3.6475757582 13.1072920041 11.4323204043 
C 17.3955107069 12.4645551369 -0.1986823430 
C 6.6439263474 -0.0532131313 9.6281143253 
C 17.6738657180 11.0895695965 -0.3086053026 
C 8.6965020104 4.3866662551 14.5652454968 
C 17.6515639234 6.9479178262 8.1346409440 
C 16.5882363088 2.3534977482 12.2444620546 
C 9.8072021047 3.7034891717 13.9721056865 
C 8.3238203321 5.8413689249 6.5366663880 
C 18.1608672731 11.0721005982 9.4969988197 
C 18.6256980136 14.5597885197 14.1760801898 
C 15.2482132213 13.3082499886 13.3155534957 
C 3.2856558752 4.3876610338 4.1638158714 
C 12.0323677054 10.1341708853 5.6344830924 
C 11.9285442862 12.1158618640 13.9455941717 
C 16.0845602023 9.0482047894 12.4049690062 
C 13.8227271629 13.6317966129 4.8224438866 
C 10.6482849569 6.4408708953 3.5993864347 
C 12.3964814150 11.4261696081 -0.3230610125 
C 18.3767619935 10.4697264210 11.7747706642 
C 7.7490919492 3.5660152653 7.3335835842 
C 15.1574662540 14.0079856064 7.1348918381 
C 4.9435283488 11.7742312547 3.1946025837 
C 4.3398485733 14.6369763375 4.8231832036 
C 2.8180660844 11.0133570408 1.5988352454 
C 4.5518071067 14.4881368345 3.2903789555 
C 15.4847286529 1.8368045341 3.7598853711 
C 2.1849060400 3.1055357969 7.5247275439 
C 14.5025058205 3.4932660352 4.8632665186 
C 2.6765538234 10.8950942300 6.1169589828 
C 15.6432461055 7.9753298151 -0.5655805457 
C 12.3105639579 10.0781753476 2.7766836745 
C 6.7769441614 7.5800066027 7.2065196622 
C 13.4769264684 13.4436976230 10.1876199120 
C 19.2323311908 1.7199174239 13.3307959770 
C 4.3809576160 6.7628704593 0.4424547417 
C 7.2558261884 2.3801020537 10.0840798381 
C 14.3472947204 7.6665980605 6.1790889027 
C 6.9939225183 7.6018370584 9.5527759866 
C 8.4862968114 13.2996034239 9.6339960891 
C 14.8178200394 0.9848100348 10.4037297553 
C 10.0172310404 0.9372892070 13.6428524558 
C 7.9350263869 5.3752528736 2.9101644787 
C 10.3576089274 0.6624259585 5.4181681178 
C 17.0414378365 3.5425913519 1.6077292585 
C 10.3802955814 7.0459754024 2.3150954434 
C 0.2035842872 13.3920425084 10.6843889668 
C 5.7575321333 2.0939615300 1.4381628527 
C 15.1805815723 13.7349650944 -0.2028899201 
C 16.7616053560 1.4764673891 2.9542192748 
C 0.1575650593 4.8961203666 1.9564046933 
C 6.7084179613 5.3830696647 15.0412963743 
C 13.7476365683 9.9465942158 9.0702553064 
C 17.7614912954 8.4714680028 10.3421759167 
C 15.2941809553 1.8433712466 1.0875825131 
C 9.3068027304 6.4249473265 7.7421432844 
C 3.7479328535 13.2483235039 1.3248648945 
C 2.9674176383 4.6032737591 14.2465862617 
C 14.5191731479 3.4736885373 14.4546013209 
C 17.2518504639 11.1508316738 10.7372581169 
C 3.5497826466 1.5011868242 10.4810601604 
C 14.4711295999 2.8863431479 3.4885812307 
C 3.7608027568 6.6322116060 12.5952294012 
C 2.8444646563 6.0360542904 5.7954384065 
C 4.8193415613 7.1690372375 8.6818972079 
C 11.1035933107 8.6777580520 14.4079235553 
C 16.2259899887 3.7550652451 6.7724831244 
C 15.1959689038 10.4197994549 9.0731728518 
C 9.6460275543 1.6069658526 10.4988555012 
C 3.2498622965 12.1038052010 6.0374497406 
C 4.3056108512 7.5244931521 13.7780770629 
C 8.8844242489 13.3962347019 11.9162623320 
C 1.4629984485 12.2778135762 12.1925379503 
C 18.4123237001 8.2656185132 12.8812504663 
C 7.4106443437 0.1134642539 0.8990742165 
C 14.7988125165 5.2512273094 -0.1850843483 
C 14.2920586470 4.9914586999 4.8473438579 
C 5.6531473743 14.5485048202 13.9308698678 
C 0.6146047749 14.4725438819 12.9652302347 
C 0.4117005359 0.0275848928 5.5897100597 
C 6.9898093639 6.9072781720 4.3099079115 
C 15.8329282729 1.6129937986 5.0890111414 
C 0.3936149295 0.8294510622 3.1273768549 
C 2.0285625413 11.6343498770 2.8014517350 
C 4.8263751145 13.7150699320 8.0220961504 
C 17.2438823851 5.9352596652 10.4082270837 
C 14.9896802237 7.5308427082 14.7328456263 
C 1.2949021645 14.2855344753 10.4192304860 
C 16.2196275276 8.8809592029 10.9084189270 
C 4.7271678103 9.4656954936 11.5674540237 
C 13.8485283712 8.4531702299 14.6779537194 
C 6.5422552481 3.1088502643 13.9292561668 
C 15.9130322116 4.0120666084 13.9975124705 
C 16.4358542269 6.5711014289 4.9863500971 
C 2.0312933361 11.6768977324 13.5164821350 
C 2.6172371617 8.0967398667 10.8993529448 
C 7.6982753292 8.3411990580 1.9294295799 
C 15.8867346838 14.4178314847 3.3655435614 
C 13.2770204010 0.8312247409 10.1621503922 
C 16.7103052884 2.6503881083 13.7615088765 
C 4.3084011204 6.5009095690 3.1826848237 
C 7.4015500775 2.1818163693 5.3780614779 
C 9.1478375142 3.8532594092 4.3709790801 
C 0.4275339937 5.2180828510 12.0744133820 
C 17.7649555462 4.4555284686 8.6000307988 
C 6.1257118216 9.0379931615 12.0000389243 
C 9.8523057508 13.2657382404 12.9334505044 
C 7.3095913010 7.6076838937 14.5060340596 
C 18.4818603963 5.2573068113 0.5890597490 
C 1.1887521455 5.2088022836 9.4748781921 
C 15.9931010624 6.7945712439 7.8104213238 
C 14.0694489748 2.1520303675 8.1937168848 
C 8.3792138949 8.4791618654 14.0494308540 
C 14.5546634462 -0.4356045257 2.7043867919 
C 1.7506934224 10.2369525010 10.7055124869 
C 7.8136458488 13.5868444399 4.9470382702 
C 0.0007227539 13.3563009400 3.5003872000 
C 15.6486872247 14.7701541808 10.4576145347 
C 10.0131545140 0.8792069270 7.6182722688 
C 3.6506958367 1.0788864269 13.9062594786 
C 15.0154342052 13.8291655659 5.5615696168 
C 6.6229443612 5.5372855606 8.3307257068 
C 13.7609061226 13.5485611760 -0.0288675512 
C 2.3328645623 13.4772129192 11.7259748278 
C 12.4299937248 0.7552669012 13.8517111746 
C 14.7594604773 6.0681135146 14.8862335025 
C 13.8777078802 0.9878623330 7.3216549433 
C 18.4088107616 11.0490171033 13.2543975086 
C 8.1368072960 9.7013812639 13.2905927751 
C 15.6990389593 9.4195441410 -0.5694960033 
C 16.6781926668 0.5265322791 5.4895232160 
C 16.0489738460 2.8621801154 9.2346446046 
C 6.0249308507 8.0867528226 6.1781652447 
C 7.5009664231 14.0655966915 10.2913881408 
C 15.3496426806 5.4581799833 8.4754779407 
C 18.1324601111 1.7721505370 3.7862564955 
C 4.5679210360 8.3747488044 9.3418607597 
C 13.4347651347 5.5745666897 14.9324492674 
C 15.3507862742 1.7202250110 9.0594712609 
C 11.4921630901 0.7173291268 4.4004515235 
C 11.0191506847 4.4121427418 14.1431997800 
C 7.3773922776 2.4029301316 6.7341479580 
C 12.8138289159 7.5502221575 3.0266315949 
C 9.8233228029 7.9736808734 14.5147021759 
C 7.4250316238 0.2826694221 8.2679084374 
C 6.6423731988 14.2737692594 1.7843892377 
C 1.9652968975 7.3748624927 2.1795530884 
C 11.9186846269 4.7239327285 5.0273149255 
C 15.3511340720 12.0376339853 1.3062082301 
C 18.4232854433 7.8971884088 5.8549127584 
C 8.5884366661 0.6486000959 14.0550357714 
C 7.1418928037 11.7355682358 8.4882225660 
C 5.5964901277 2.1105063527 8.1088104649 
C 6.0965775412 4.7214417853 12.1051070672 
C 17.9693192843 7.4783451138 0.2141142378 
C 7.2212678097 12.0663136669 0.8292684267 
C 3.3949677115 14.1808322083 7.5693214950 
C 6.7721662382 1.0656883760 10.7950493097 
C 5.1621729740 9.2338866645 6.2051920065 
C 14.2457279361 9.0836128216 6.3313041498 
C 12.0363686986 14.4079038410 13.4884546927 
C 12.8115251856 4.8285751134 12.2678083961 
C 4.8572030934 7.0639868603 11.4238165916 
C 13.8001910939 6.2726710684 -0.4744588124 
C 11.4426340627 3.2788471574 11.0881570845 
C 13.4681395850 7.0557261633 11.7418859717 
C 18.0085621427 7.0451875470 9.7687673771 
C 0.2854909514 10.8599516702 -0.1902230705 
C 5.0116219366 9.9335457600 7.3793908502 
C 15.4320155548 9.4852667734 3.8035620464 
C 8.8650220989 0.6217583945 8.5706432747 
C 15.8185430450 12.8425817068 7.9858114007 
C 7.2981354482 11.3777510960 6.0331360843 
C 7.9198622949 10.1866349022 0.5267636054 
C 4.3744432434 9.5242346327 8.5595836245 
C 5.1027060852 11.4488137479 7.2018914688 
C 9.6413471418 4.1254311963 1.6726588654 
C 3.6432829860 14.6235943008 0.9438259959 
C 1.0461205354 7.6364925325 3.3513636613 
C 5.1656604527 11.0771614403 4.6416874978 
C 3.4291841674 3.4021927993 14.4859594734 
C 1.6969546144 4.8337324618 1.9524571553 
C 9.9194812882 6.5259408296 14.7662087938 
C 12.7836158281 10.3478631170 8.0023240424 
C 7.1952775212 9.9084531980 12.0191071042 
C 17.6162365879 13.9083863244 7.0157603781 
C 16.2865353419 0.3402382879 13.3895591649 
C 8.0733917685 4.6748400665 10.8702371347 
C 10.2251319155 3.9112075397 3.1970928845 
C 16.5323458008 2.2264143994 1.6796850783 
C 11.6335058314 2.0958904571 8.7757826000 
C 10.7682875205 2.5842965060 3.2405371316 
C 5.5170355877 13.6825365613 12.5671437300 
C 2.7629848905 0.3537358647 -0.0013006023 
C 1.4986483025 6.8231457641 0.7377964489 
C 8.0117621656 0.8912480743 11.8561563529 
C 14.9635729839 1.6884475670 11.8920534861 
C 2.6347528399 13.4640690803 6.4444325407 
C 8.4526460083 5.2027789939 4.1381074591 
C 10.7285437138 5.1715907571 5.7519602546 
C 16.1701013848 6.5250659238 11.0721763009 
C 10.9869293322 10.9204250234 -0.2050993613 
C 17.8487183120 9.9847607491 14.2239297883 
C 10.4951086266 5.2555599065 9.6260736756 
C 4.2535911374 2.2627678899 14.3310835309 
C 12.7290429532 3.8141420446 0.4660446185 
C 12.3817237580 11.0738267563 11.2109274557 
C 6.8210503927 12.9092713870 1.8448894770 
C 14.3506741889 14.2038228860 12.4603012472 
C 17.2532417853 4.8815524636 6.4651487012 
C 4.2647384843 15.5207187145 11.5569802356 
C 2.4627700082 3.9804537338 11.2391871995 
C 10.0016339754 7.2033634774 11.6673109363 
C 12.2391362585 2.5860587972 0.7693534268 
C 15.0866026259 11.9066065257 8.7042779776 
C 5.3850838984 10.0727926841 1.2257710057 
C 13.3378781288 4.2840910941 14.4836782205 
C 4.5861323459 7.3706368367 4.3876868225 
C 0.1663952642 6.5529427545 0.2803569640 
C 1.7281725866 12.5211043326 8.8760924169 
C 4.1973448384 11.7969402348 11.9230657947 
C 1.7579224114 9.5391877140 7.9561026835 
C 2.2971093180 7.0663493881 8.2842748310 
C 1.5223112047 5.8572016090 8.1343266354 
C 2.5749792046 13.4644898113 -1.2340727598 
C 7.6532414895 9.3111240171 4.6286146020 
C 10.8903809595 13.6256332587 8.6687646960 
C 16.0841647385 11.0995986266 2.3038727894 
C 5.6602772414 1.0783215745 11.9297590655 
C 15.5285741095 6.9163936108 6.2342409847 
C 8.2292948639 4.7147150380 9.5239249077 
C 6.1953814559 3.1423549590 9.2128946391 
C 0.9459425542 11.9410066539 7.6411158734 
C 6.7489720494 6.2768855623 2.9514448379 
C 10.2172353579 1.5789601628 6.3958511213 
C 8.3346272184 6.3530574794 5.0407487981 
C 3.1326541951 9.7235258134 5.4091925142 
C 9.3774655385 7.5816343432 10.6208711189 
C 6.9613318569 12.3807326034 14.4654398506 
C 14.4086396766 9.7718568817 14.1069084790 
C 12.1433506309 13.4590769724 11.2957045727 
C 8.9635228073 12.5308060964 10.7883808706 
C 11.1451357945 8.8654421533 5.7195521991 
C 1.3906374521 13.6105596589 3.8452352555 
C 2.2551962496 5.6917050702 0.8247357937 
C 15.0942876224 9.8732743972 12.8145849138 
C 18.1367028334 5.9242554809 2.7653644599 
C 5.9477468846 3.5025054583 1.7408798063 
C 1.0275310486 9.2610066876 9.2609983337 
C 0.7898823650 8.3417629024 13.7768349488 
C 11.4688537767 5.4047586499 11.8921072714 
C 3.3246303414 8.4581716123 13.6945816088 
C 6.0125849796 6.4405408326 9.3285823267 
C 5.1879366036 4.3524976280 2.5811631082 
C 0.3892807941 9.5794532391 14.4702179265 
C 0.8823810177 1.6969224496 0.4314357396 
C 17.8103978085 10.5287193336 6.8731737700 
C 13.6121279623 13.9434472144 3.3325316125 
C 7.2824853894 5.5250120420 11.6769240882 
C 5.1561884521 6.0291390098 10.4460538805 
C 12.7846243896 3.4329690546 10.1993570474 
C 4.6801821430 12.0828021048 5.7903968130 
C 4.5799730565 2.7982093890 7.1556736880 
C 16.8732986909 3.7465931331 11.6032665172 
C 12.5107205065 1.7157671665 12.4509980474 
C 3.1112706668 10.1761900020 8.6512667707 
C 5.2085521554 5.0834571980 13.2610923142 
C 12.4946997719 7.9207358357 14.7804329589 
C 6.6436338727 11.0994877271 9.7419883441 
C 10.4877038347 8.7745791630 7.1790167092 
C 18.6627886319 13.0985759726 -0.3553459655 
C 1.3927545243 10.7153552491 3.7747604482 
C 4.9260742552 4.7501994406 10.9911588615 
C 2.2565960716 14.4996756301 12.9255860764 
C 14.2786754051 7.5968327969 -0.8320528404 
C 16.0671692537 3.8693571787 10.2476621582 
C 18.8516388655 6.6679019625 3.7534806180 
C 11.9251270791 7.1802417350 4.0536909134 
C 13.9700033837 0.9372291814 14.1685248399 
C 0.8920048111 5.5015549938 4.3605826891 
C 11.4679892182 3.3501829748 7.7609237741 
C 14.9670075115 11.1037472289 11.8124686672 
C 7.6440379051 6.4353146444 15.2644087417 
C 18.5069038519 8.6962595966 0.9274428141 
C 6.8652653115 7.2447041585 1.7437304622 
C 10.8739059794 2.9667252371 6.3732878328 
C 11.7476507508 13.2922036134 14.5820570309 
C 14.7910391534 4.6065962484 10.7304129714 
C 0.6180008096 5.7863634652 14.8344144011 
C 12.5270822554 4.2046686968 7.8971480503 
C 10.2277869130 7.3027993723 0.0893701199 
C 10.6422381127 8.4380737849 2.4857945031 
C 14.3747727750 12.2644391926 14.0329183345 
C 3.8510345205 8.0908991193 0.7473084180 
C 10.2896564027 10.7486006774 13.3975570707 
C 17.8466408686 12.4609160781 12.9417267288 
C 13.9989113490 11.8528502382 1.4665642580 
C 3.3481035808 4.6565855955 5.6368953717 
C 7.9125720590 7.4941586873 10.6001859090 
C 2.3816765620 3.4977688848 6.0685313312 
C 9.9945434463 11.8652619928 0.4411736790 
C 4.2976035910 2.0059904653 5.9873314363 
C 18.4363740013 0.9813529465 14.2997830016 
C 16.9173214823 11.4037906951 3.7146969500 
C 11.3321621440 12.2530336926 8.3618018602 
C 0.4994334012 4.0521437622 4.5136075154 
C 3.7944468887 5.1568438644 13.0005474278 
C 8.6277516044 14.6028028737 0.6758537150 
C 11.1452322751 0.9282575748 14.6985915332 
C 10.5318799206 13.6659273821 15.2343932113 
C 1.9770670494 8.2117895437 7.1036448355 
C 3.1166612894 8.4210866633 6.1761561283 
C 16.6778819406 0.9407408777 8.2258252443 
C 6.7965850780 10.7335942042 4.7589304274 
C 3.1227286104 11.7137054205 8.9162699303 
C 3.3827871775 1.2694855818 9.0397652618 
C 9.8086746188 15.0483074654 10.5937265331 
C 12.2199067520 4.0075526590 13.4605671113 
C 13.2886112155 14.6028632204 9.2151546076 
C 17.2858922191 1.9620119337 7.4596451462 
C 8.9596078662 2.1308510165 11.7524404709 
C 9.0198616754 9.5328709597 7.0492785094 
C 4.1576566202 0.2638015361 2.0329807636 
C 6.4454433029 12.3586156908 3.1624980128 
C 5.4281749031 12.3030395804 12.6684438737 
C 10.2649797153 0.2234921299 2.2985519445 
C 7.1035251541 4.1289080686 8.6201355625 
C 4.4046324921 4.3393452744 6.7534963244 
C 12.9217059016 13.6735791165 12.5209683825 
C 1.7440397908 0.8252988464 3.7189481071 
C 7.3556792142 8.2837216168 8.3761417534 
C 11.9920716421 3.1621297377 5.2574596493 
C 11.5515484769 7.1761229157 -0.4440680761 
C 0.5268288702 12.0513302229 9.9830323297 
C 18.3162850872 3.2866632198 3.7508937883 
C 6.8190223907 0.9347717094 3.5929823757 
C 8.5991035571 9.0567387874 5.5898809766 
C 10.8317039598 9.5028405310 -0.3539090687 
C 6.9996183000 6.1681388041 7.1746577201 
C 13.6095610406 3.7976157403 11.3638054733 
C 3.5352003161 9.3220090655 2.9870459902 
C 12.5055864657 0.2538362073 5.4220473590 
C 12.0971235962 9.7125689560 10.7280532841 
C 8.3618865754 12.0052466482 14.3280919392 
C 2.3730453205 9.3734997851 11.6397104587 
C 15.0020091768 4.3671629981 7.3907019492 
C 14.0290089204 7.0193981360 10.1935162156 
C 17.1261125369 8.6595446514 13.5235096627 
C 14.8327880529 13.6731353157 11.0921585133 
C 10.3455165112 7.2144468690 7.2579981832 
C 10.2379914815 13.2432650728 5.1862697518 
C 2.3626147215 1.6617317846 0.0705036337 
C 7.2843050328 4.0568031851 14.7304188273 
C 3.8183764428 2.2899311644 3.0870148686 
C 2.7835909291 8.6061596743 1.7297361360 
C 6.9636792468 1.4684408981 1.0017802391 
C 10.6715615904 14.5905672280 12.8516916264 
C 0.1434387685 14.1131757313 6.5639208290 
C 8.1347525245 14.4439106462 14.6288482137 
C 11.2850245440 11.9428486133 11.4351431874 
C 7.3977676818 14.0365275387 7.3765046358 
C 14.4870601855 11.0714278527 14.5782761667 
C 0.8330239317 4.3238130004 13.2460857711 
C 9.1812307879 13.3039993028 14.4526464904 
C 3.0764996584 12.5534691514 14.4405904283 
C 14.3281702818 2.1710899084 14.5432107413 
C 17.2135549253 8.3703839754 3.2926213775 
C 10.6387893660 14.9708371550 15.5430624476 
C 13.3043775688 6.1549612779 2.7334227828 
C 17.0271892784 1.3964636122 14.2498751016 
C 6.8274919116 13.8376632205 14.5579196834 
C 16.9701610958 14.9911028403 2.8403401932 
C 3.0295406809 10.7398520405 10.0588700135 
C 1.0961390045 6.3153418137 11.6142592385 
C 0.8721302154 12.1040145915 -0.3553909064 
C 11.3099248731 10.9067077216 3.5391286483 
C 7.3933639515 6.8675172037 11.7556999554 
C 17.6993488774 9.0477928667 2.0630629139 
C 12.0388074546 8.7362975636 2.5035177023 
C 11.2104071501 9.8616135345 8.1291232931 
C 8.7378662776 11.6698477841 6.0819751048 
C 5.9173014250 14.0164124209 6.7670808462 
C 15.6536991653 7.9208490942 8.7048545660 
C 13.1905196654 5.5228386153 5.4351110498 
C 0.8674439444 11.3062748598 11.1839577991 
C 1.6211885507 7.7865936285 9.6301746158 
C 10.0195838902 6.3754133440 1.1383119074 
C 14.0487711646 14.7943689569 7.8316691604 
C 7.7826729951 1.9246061136 3.0686998816 
C 12.0148028879 1.0449424147 11.0729380446 
C 10.0234378017 11.6275417913 10.7257859885 
C 1.0492051826 3.4142962896 5.5702094761 
C 18.1370288103 5.5220539034 7.4748646489 
C 12.3054990544 7.6802779511 12.1838317126 
C 16.0889178111 12.9002620703 0.3277885310 
C 11.0503670144 2.0441280985 10.2997930736 
C 6.6508769733 1.3195676968 7.4114711512 
C 11.8481741201 7.4527545238 5.4862651211 
C 13.1891860775 6.9405147521 5.7643335145 
C 6.1750687580 14.6780652016 3.1093081961 
C 3.9483596486 5.0004606783 7.9030601885 
C 12.2612205953 13.9622545551 2.5834659272 
C 0.9043164285 2.9815496769 7.8648620618 
C 0.3482437250 2.7458174944 9.1700118229 
C 3.0687552580 2.3104440710 5.4043073872 
C 2.4699945951 4.3331940335 9.8823081325 
C 15.8690510717 8.1991503734 3.4167599018 
C 12.9806572804 7.8083178257 9.6523432980 
C 17.5808885401 13.5983296931 14.0036629688 
C 14.9211685662 4.2598429080 2.9141753167 
C 14.1480883115 3.9828540607 0.0533034113 
C 9.8459894719 10.4110476989 10.0712532583 
C 6.6020374838 10.7475152998 0.8239894224 
C 14.3059748254 0.6548024812 1.5065134066 
C 0.9138212772 10.8274863619 13.9205921365 
C 9.7441845989 14.3150612708 1.3218801199 
C 13.2026854312 12.2568545229 13.1354530426 
C 8.1909077778 2.6658905631 4.2385537591 
C 8.2661726286 14.2688681545 6.0373488709 
C 3.4901608523 7.2156896145 5.5027120229 
C 7.4526886255 11.3220911292 3.6038082776 
C 3.7430654452 6.4297172871 8.1646817058 
C 13.0293364155 2.1302208429 9.2885056120 
C 7.6059571224 1.0239281595 13.1922459873 
C 1.6700030724 14.8748003502 4.7243325599 
C 5.3425467761 13.4877204916 5.3964448422 
C 10.3121916826 1.7173994905 2.1714966324 
C 17.7566293406 7.4852932104 4.5398529126 
C 13.1540083802 2.2043351924 2.9908864523 
C 13.4636871740 2.8517655652 5.8866462219 
C 18.8814211734 0.7075207594 12.2138847820 
C 5.8177195556 7.3590452758 0.6300800057 
C 1.7624042447 2.8696352425 11.8088574686 
C 15.7577926863 6.5844920427 3.5824427469 
C 9.8132763655 8.5717683015 4.9035701035 
C 5.7049086246 2.0573933845 14.3050513791 
C 10.4065763451 5.0888337468 0.9761490651 
C 9.7713945197 8.6196351751 0.1204439967 
C 3.6501038641 4.5138218192 11.7742603371 
C 3.7008407786 4.0973201448 -0.0032435454 
C 3.6419503259 3.9955353044 9.0044124220 
C 1.3848599520 10.6989986878 6.9611307258 

